1728

Sn -5.97153 -5.96968 -65.31722
Sn -2.98499 -2.98500 -64.06605
Sn -5.96996 -2.98493 -64.74923
Sn -2.98498 -5.96999 -63.48963
Sn -5.97001 -5.96997 -62.33555
Sn -2.98511 -2.98501 -60.94651
Sn -5.97048 -2.98469 -61.67139
Sn -2.98498 -5.97000 -60.21841
Sn -5.97001 -5.97002 -59.18238
Sn -2.98500 -2.98501 -57.60987
Sn -5.97004 -2.98504 -58.43167
Sn -2.98537 -5.97000 -56.86916
Sn -5.97142 -5.97002 -56.01985
Sn -2.98500 -2.98500 -54.43306
Sn -5.96999 -2.98501 -55.21827
Sn -2.98502 -5.97000 -53.67788
Sn -5.97002 -5.97000 -52.84102
Sn -2.98499 -2.98499 -51.18564
Sn -5.97001 -2.98499 -52.00865
Sn -2.98599 -5.96998 -50.41485
Sn -5.97085 -5.96943 -49.59167
Sn -2.98502 -2.98500 -47.98712
Sn -5.97002 -2.98477 -48.78563
Sn -2.98500 -5.97000 -47.20976
Sn -5.97000 -5.97000 -46.39719
Sn -2.98583 -2.98497 -44.75105
Sn -5.97422 -2.98523 -45.56869
Sn -2.98500 -5.96999 -43.98745
Sn -5.97001 -5.97000 -43.16450
Sn -2.98497 -2.98489 -41.56437
Sn -5.97004 -2.98500 -42.37399
Sn -2.98624 -5.96934 -40.74356
Sn -5.97106 -5.97001 -39.94058
Sn -2.98499 -2.98498 -38.30974
Sn -5.97001 -2.98502 -39.11925
Sn -2.98712 -5.96995 -37.53115
Sn -5.97016 -5.97000 -36.69607
Sn -2.98424 -2.98435 -35.11805
Sn -5.96984 -2.98503 -35.93276
Sn -2.98517 -5.96995 -34.28667
Sn -5.97026 -5.96995 -33.47262
Sn -2.98502 -2.98494 -31.90661
Sn -5.97000 -2.98499 -32.69645
Sn -2.98583 -5.96988 -31.09205
Sn -5.97081 -5.96963 -30.26857
Sn -2.98500 -2.98501 -28.67521
Sn -5.96999 -2.98494 -29.49771
Sn -2.98501 -5.97001 -27.84253
Sn -5.97001 -5.96999 -27.00498
Sn -2.98502 -2.98484 -25.46552
Sn -5.97005 -2.98502 -26.24967
Sn -2.98639 -5.96943 -24.66448
Sn -5.97053 -5.97013 -23.80589
Sn -2.98547 -2.98500 -22.26105
Sn -5.97359 -2.98494 -23.05946
Sn -2.98500 -5.97000 -21.50119
Sn -5.97001 -5.97001 -20.46480
Sn -2.98564 -2.98482 -19.01730
Sn -5.97014 -2.98503 -19.73667
Sn -2.98503 -5.96997 -18.34783
Sn -5.96990 -5.97311 -17.18100
Sn -2.98504 -2.98511 -15.93468
Sn -5.97001 -2.98724 -16.61862
Sn -2.98425 -5.97033 -15.36444
Sn -5.97153 -5.96968 15.36628
Sn -2.98499 -2.98500 16.61745
Sn -5.96996 -2.98493 15.93427
Sn -2.98498 -5.96999 17.19387
Sn -5.97001 -5.96997 18.34795
Sn -2.98511 -2.98501 19.73699
Sn -5.97048 -2.98469 19.01211
Sn -2.98498 -5.97000 20.46509
Sn -5.97001 -5.97002 21.50112
Sn -2.98500 -2.98501 23.07363
Sn -5.97004 -2.98504 22.25183
Sn -2.98537 -5.97000 23.81434
Sn -5.97142 -5.97002 24.66365
Sn -2.98500 -2.98500 26.25044
Sn -5.96999 -2.98501 25.46523
Sn -2.98502 -5.97000 27.00562
Sn -5.97002 -5.97000 27.84248
Sn -2.98499 -2.98499 29.49786
Sn -5.97001 -2.98499 28.67485
Sn -2.98599 -5.96998 30.26865
Sn -5.97085 -5.96943 31.09183
Sn -2.98502 -2.98500 32.69638
Sn -5.97002 -2.98477 31.89787
Sn -2.98500 -5.97000 33.47374
Sn -5.97000 -5.97000 34.28631
Sn -2.98583 -2.98497 35.93245
Sn -5.97422 -2.98523 35.11481
Sn -2.98500 -5.96999 36.69605
Sn -5.97001 -5.97000 37.51900
Sn -2.98497 -2.98489 39.11913
Sn -5.97004 -2.98500 38.30951
Sn -2.98624 -5.96934 39.93994
Sn -5.97106 -5.97001 40.74292
Sn -2.98499 -2.98498 42.37376
Sn -5.97001 -2.98502 41.56425
Sn -2.98712 -5.96995 43.15235
Sn -5.97016 -5.97000 43.98743
Sn -2.98424 -2.98435 45.56545
Sn -5.96984 -2.98503 44.75074
Sn -2.98517 -5.96995 46.39683
Sn -5.97026 -5.96995 47.21088
Sn -2.98502 -2.98494 48.77689
Sn -5.97000 -2.98499 47.98705
Sn -2.98583 -5.96988 49.59145
Sn -5.97081 -5.96963 50.41493
Sn -2.98500 -2.98501 52.00829
Sn -5.96999 -2.98494 51.18579
Sn -2.98501 -5.97001 52.84097
Sn -5.97001 -5.96999 53.67852
Sn -2.98502 -2.98484 55.21798
Sn -5.97005 -2.98502 54.43383
Sn -2.98639 -5.96943 56.01902
Sn -5.97053 -5.97013 56.87761
Sn -2.98547 -2.98500 58.42245
Sn -5.97359 -2.98494 57.62404
Sn -2.98500 -5.97000 59.18231
Sn -5.97001 -5.97001 60.21870
Sn -2.98564 -2.98482 61.66620
Sn -5.97014 -2.98503 60.94683
Sn -2.98503 -5.96997 62.33567
Sn -5.96990 -5.97311 63.50250
Sn -2.98504 -2.98511 64.74882
Sn -5.97001 -2.98724 64.06488
Sn -2.98425 -5.97033 65.31906
Sn -5.97153 -5.96968 96.04978
Sn -2.98499 -2.98500 97.30095
Sn -5.96996 -2.98493 96.61777
Sn -2.98498 -5.96999 97.87737
Sn -5.97001 -5.96997 99.03145
Sn -2.98511 -2.98501 100.42049
Sn -5.97048 -2.98469 99.69561
Sn -2.98498 -5.97000 101.14859
Sn -5.97001 -5.97002 102.18462
Sn -2.98500 -2.98501 103.75713
Sn -5.97004 -2.98504 102.93533
Sn -2.98537 -5.97000 104.49784
Sn -5.97142 -5.97002 105.34715
Sn -2.98500 -2.98500 106.93394
Sn -5.96999 -2.98501 106.14873
Sn -2.98502 -5.97000 107.68912
Sn -5.97002 -5.97000 108.52598
Sn -2.98499 -2.98499 110.18136
Sn -5.97001 -2.98499 109.35835
Sn -2.98599 -5.96998 110.95215
Sn -5.97085 -5.96943 111.77533
Sn -2.98502 -2.98500 113.37988
Sn -5.97002 -2.98477 112.58137
Sn -2.98500 -5.97000 114.15724
Sn -5.97000 -5.97000 114.96981
Sn -2.98583 -2.98497 116.61595
Sn -5.97422 -2.98523 115.79831
Sn -2.98500 -5.96999 117.37955
Sn -5.97001 -5.97000 118.20250
Sn -2.98497 -2.98489 119.80263
Sn -5.97004 -2.98500 118.99301
Sn -2.98624 -5.96934 120.62344
Sn -5.97106 -5.97001 121.42642
Sn -2.98499 -2.98498 123.05726
Sn -5.97001 -2.98502 122.24775
Sn -2.98712 -5.96995 123.83585
Sn -5.97016 -5.97000 124.67093
Sn -2.98424 -2.98435 126.24895
Sn -5.96984 -2.98503 125.43424
Sn -2.98517 -5.96995 127.08033
Sn -5.97026 -5.96995 127.89438
Sn -2.98502 -2.98494 129.46039
Sn -5.97000 -2.98499 128.67055
Sn -2.98583 -5.96988 130.27495
Sn -5.97081 -5.96963 131.09843
Sn -2.98500 -2.98501 132.69179
Sn -5.96999 -2.98494 131.86929
Sn -2.98501 -5.97001 133.52447
Sn -5.97001 -5.96999 134.36202
Sn -2.98502 -2.98484 135.90148
Sn -5.97005 -2.98502 135.11733
Sn -2.98639 -5.96943 136.70252
Sn -5.97053 -5.97013 137.56111
Sn -2.98547 -2.98500 139.10595
Sn -5.97359 -2.98494 138.30754
Sn -2.98500 -5.97000 139.86581
Sn -5.97001 -5.97001 140.90220
Sn -2.98564 -2.98482 142.34970
Sn -5.97014 -2.98503 141.63033
Sn -2.98503 -5.96997 143.01917
Sn -5.96990 -5.97311 144.18600
Sn -2.98504 -2.98511 145.43232
Sn -5.97001 -2.98724 144.74838
Sn -2.98425 -5.97033 146.00256
Sn -5.97153  0.00032 -65.31722
Sn -2.98499  2.98500 -64.06605
Sn -5.96996  2.98507 -64.74923
Sn -2.98498  0.00001 -63.48963
Sn -5.97001  0.00003 -62.33555
Sn -2.98511  2.98499 -60.94651
Sn -5.97048  2.98531 -61.67139
Sn -2.98498  0.00000 -60.21841
Sn -5.97001 -0.00002 -59.18238
Sn -2.98500  2.98499 -57.60987
Sn -5.97004  2.98496 -58.43167
Sn -2.98537 -0.00000 -56.86916
Sn -5.97142 -0.00002 -56.01985
Sn -2.98500  2.98500 -54.43306
Sn -5.96999  2.98499 -55.21827
Sn -2.98502  0.00000 -53.67788
Sn -5.97002 -0.00000 -52.84102
Sn -2.98499  2.98501 -51.18564
Sn -5.97001  2.98501 -52.00865
Sn -2.98599  0.00002 -50.41485
Sn -5.97085  0.00057 -49.59167
Sn -2.98502  2.98500 -47.98712
Sn -5.97002  2.98523 -48.78563
Sn -2.98500 -0.00000 -47.20976
Sn -5.97000 -0.00000 -46.39719
Sn -2.98583  2.98503 -44.75105
Sn -5.97422  2.98477 -45.56869
Sn -2.98500  0.00001 -43.98745
Sn -5.97001  0.00000 -43.16450
Sn -2.98497  2.98511 -41.56437
Sn -5.97004  2.98500 -42.37399
Sn -2.98624  0.00066 -40.74356
Sn -5.97106 -0.00001 -39.94058
Sn -2.98499  2.98502 -38.30974
Sn -5.97001  2.98498 -39.11925
Sn -2.98712  0.00005 -37.53115
Sn -5.97016  0.00000 -36.69607
Sn -2.98424  2.98565 -35.11805
Sn -5.96984  2.98497 -35.93276
Sn -2.98517  0.00005 -34.28667
Sn -5.97026  0.00005 -33.47262
Sn -2.98502  2.98506 -31.90661
Sn -5.97000  2.98501 -32.69645
Sn -2.98583  0.00012 -31.09205
Sn -5.97081  0.00037 -30.26857
Sn -2.98500  2.98499 -28.67521
Sn -5.96999  2.98506 -29.49771
Sn -2.98501 -0.00001 -27.84253
Sn -5.97001  0.00001 -27.00498
Sn -2.98502  2.98516 -25.46552
Sn -5.97005  2.98498 -26.24967
Sn -2.98639  0.00057 -24.66448
Sn -5.97053 -0.00013 -23.80589
Sn -2.98547  2.98500 -22.26105
Sn -5.97359  2.98506 -23.05946
Sn -2.98500 -0.00000 -21.50119
Sn -5.97001 -0.00001 -20.46480
Sn -2.98564  2.98518 -19.01730
Sn -5.97014  2.98497 -19.73667
Sn -2.98503  0.00003 -18.34783
Sn -5.96990 -0.00311 -17.18100
Sn -2.98504  2.98489 -15.93468
Sn -5.97001  2.98276 -16.61862
Sn -2.98425 -0.00033 -15.36444
Sn -5.97153  0.00032 15.36628
Sn -2.98499  2.98500 16.61745
Sn -5.96996  2.98507 15.93427
Sn -2.98498  0.00001 17.19387
Sn -5.97001  0.00003 18.34795
Sn -2.98511  2.98499 19.73699
Sn -5.97048  2.98531 19.01211
Sn -2.98498  0.00000 20.46509
Sn -5.97001 -0.00002 21.50112
Sn -2.98500  2.98499 23.07363
Sn -5.97004  2.98496 22.25183
Sn -2.98537 -0.00000 23.81434
Sn -5.97142 -0.00002 24.66365
Sn -2.98500  2.98500 26.25044
Sn -5.96999  2.98499 25.46523
Sn -2.98502  0.00000 27.00562
Sn -5.97002 -0.00000 27.84248
Sn -2.98499  2.98501 29.49786
Sn -5.97001  2.98501 28.67485
Sn -2.98599  0.00002 30.26865
Sn -5.97085  0.00057 31.09183
Sn -2.98502  2.98500 32.69638
Sn -5.97002  2.98523 31.89787
Sn -2.98500 -0.00000 33.47374
Sn -5.97000 -0.00000 34.28631
Sn -2.98583  2.98503 35.93245
Sn -5.97422  2.98477 35.11481
Sn -2.98500  0.00001 36.69605
Sn -5.97001  0.00000 37.51900
Sn -2.98497  2.98511 39.11913
Sn -5.97004  2.98500 38.30951
Sn -2.98624  0.00066 39.93994
Sn -5.97106 -0.00001 40.74292
Sn -2.98499  2.98502 42.37376
Sn -5.97001  2.98498 41.56425
Sn -2.98712  0.00005 43.15235
Sn -5.97016  0.00000 43.98743
Sn -2.98424  2.98565 45.56545
Sn -5.96984  2.98497 44.75074
Sn -2.98517  0.00005 46.39683
Sn -5.97026  0.00005 47.21088
Sn -2.98502  2.98506 48.77689
Sn -5.97000  2.98501 47.98705
Sn -2.98583  0.00012 49.59145
Sn -5.97081  0.00037 50.41493
Sn -2.98500  2.98499 52.00829
Sn -5.96999  2.98506 51.18579
Sn -2.98501 -0.00001 52.84097
Sn -5.97001  0.00001 53.67852
Sn -2.98502  2.98516 55.21798
Sn -5.97005  2.98498 54.43383
Sn -2.98639  0.00057 56.01902
Sn -5.97053 -0.00013 56.87761
Sn -2.98547  2.98500 58.42245
Sn -5.97359  2.98506 57.62404
Sn -2.98500 -0.00000 59.18231
Sn -5.97001 -0.00001 60.21870
Sn -2.98564  2.98518 61.66620
Sn -5.97014  2.98497 60.94683
Sn -2.98503  0.00003 62.33567
Sn -5.96990 -0.00311 63.50250
Sn -2.98504  2.98489 64.74882
Sn -5.97001  2.98276 64.06488
Sn -2.98425 -0.00033 65.31906
Sn -5.97153  0.00032 96.04978
Sn -2.98499  2.98500 97.30095
Sn -5.96996  2.98507 96.61777
Sn -2.98498  0.00001 97.87737
Sn -5.97001  0.00003 99.03145
Sn -2.98511  2.98499 100.42049
Sn -5.97048  2.98531 99.69561
Sn -2.98498  0.00000 101.14859
Sn -5.97001 -0.00002 102.18462
Sn -2.98500  2.98499 103.75713
Sn -5.97004  2.98496 102.93533
Sn -2.98537 -0.00000 104.49784
Sn -5.97142 -0.00002 105.34715
Sn -2.98500  2.98500 106.93394
Sn -5.96999  2.98499 106.14873
Sn -2.98502  0.00000 107.68912
Sn -5.97002 -0.00000 108.52598
Sn -2.98499  2.98501 110.18136
Sn -5.97001  2.98501 109.35835
Sn -2.98599  0.00002 110.95215
Sn -5.97085  0.00057 111.77533
Sn -2.98502  2.98500 113.37988
Sn -5.97002  2.98523 112.58137
Sn -2.98500 -0.00000 114.15724
Sn -5.97000 -0.00000 114.96981
Sn -2.98583  2.98503 116.61595
Sn -5.97422  2.98477 115.79831
Sn -2.98500  0.00001 117.37955
Sn -5.97001  0.00000 118.20250
Sn -2.98497  2.98511 119.80263
Sn -5.97004  2.98500 118.99301
Sn -2.98624  0.00066 120.62344
Sn -5.97106 -0.00001 121.42642
Sn -2.98499  2.98502 123.05726
Sn -5.97001  2.98498 122.24775
Sn -2.98712  0.00005 123.83585
Sn -5.97016  0.00000 124.67093
Sn -2.98424  2.98565 126.24895
Sn -5.96984  2.98497 125.43424
Sn -2.98517  0.00005 127.08033
Sn -5.97026  0.00005 127.89438
Sn -2.98502  2.98506 129.46039
Sn -5.97000  2.98501 128.67055
Sn -2.98583  0.00012 130.27495
Sn -5.97081  0.00037 131.09843
Sn -2.98500  2.98499 132.69179
Sn -5.96999  2.98506 131.86929
Sn -2.98501 -0.00001 133.52447
Sn -5.97001  0.00001 134.36202
Sn -2.98502  2.98516 135.90148
Sn -5.97005  2.98498 135.11733
Sn -2.98639  0.00057 136.70252
Sn -5.97053 -0.00013 137.56111
Sn -2.98547  2.98500 139.10595
Sn -5.97359  2.98506 138.30754
Sn -2.98500 -0.00000 139.86581
Sn -5.97001 -0.00001 140.90220
Sn -2.98564  2.98518 142.34970
Sn -5.97014  2.98497 141.63033
Sn -2.98503  0.00003 143.01917
Sn -5.96990 -0.00311 144.18600
Sn -2.98504  2.98489 145.43232
Sn -5.97001  2.98276 144.74838
Sn -2.98425 -0.00033 146.00256
Sn -5.97153  5.97032 -65.31722
Sn -2.98499  8.95500 -64.06605
Sn -5.96996  8.95507 -64.74923
Sn -2.98498  5.97001 -63.48963
Sn -5.97001  5.97003 -62.33555
Sn -2.98511  8.95499 -60.94651
Sn -5.97048  8.95531 -61.67139
Sn -2.98498  5.97000 -60.21841
Sn -5.97001  5.96998 -59.18238
Sn -2.98500  8.95499 -57.60987
Sn -5.97004  8.95496 -58.43167
Sn -2.98537  5.97000 -56.86916
Sn -5.97142  5.96998 -56.01985
Sn -2.98500  8.95500 -54.43306
Sn -5.96999  8.95499 -55.21827
Sn -2.98502  5.97000 -53.67788
Sn -5.97002  5.97000 -52.84102
Sn -2.98499  8.95501 -51.18564
Sn -5.97001  8.95501 -52.00865
Sn -2.98599  5.97002 -50.41485
Sn -5.97085  5.97057 -49.59167
Sn -2.98502  8.95500 -47.98712
Sn -5.97002  8.95523 -48.78563
Sn -2.98500  5.97000 -47.20976
Sn -5.97000  5.97000 -46.39719
Sn -2.98583  8.95503 -44.75105
Sn -5.97422  8.95477 -45.56869
Sn -2.98500  5.97001 -43.98745
Sn -5.97001  5.97000 -43.16450
Sn -2.98497  8.95511 -41.56437
Sn -5.97004  8.95500 -42.37399
Sn -2.98624  5.97066 -40.74356
Sn -5.97106  5.96999 -39.94058
Sn -2.98499  8.95502 -38.30974
Sn -5.97001  8.95498 -39.11925
Sn -2.98712  5.97005 -37.53115
Sn -5.97016  5.97000 -36.69607
Sn -2.98424  8.95565 -35.11805
Sn -5.96984  8.95497 -35.93276
Sn -2.98517  5.97005 -34.28667
Sn -5.97026  5.97005 -33.47262
Sn -2.98502  8.95506 -31.90661
Sn -5.97000  8.95501 -32.69645
Sn -2.98583  5.97012 -31.09205
Sn -5.97081  5.97037 -30.26857
Sn -2.98500  8.95499 -28.67521
Sn -5.96999  8.95506 -29.49771
Sn -2.98501  5.96999 -27.84253
Sn -5.97001  5.97001 -27.00498
Sn -2.98502  8.95516 -25.46552
Sn -5.97005  8.95498 -26.24967
Sn -2.98639  5.97057 -24.66448
Sn -5.97053  5.96987 -23.80589
Sn -2.98547  8.95500 -22.26105
Sn -5.97359  8.95506 -23.05946
Sn -2.98500  5.97000 -21.50119
Sn -5.97001  5.96999 -20.46480
Sn -2.98564  8.95518 -19.01730
Sn -5.97014  8.95497 -19.73667
Sn -2.98503  5.97003 -18.34783
Sn -5.96990  5.96689 -17.18100
Sn -2.98504  8.95489 -15.93468
Sn -5.97001  8.95276 -16.61862
Sn -2.98425  5.96967 -15.36444
Sn -5.97153  5.97032 15.36628
Sn -2.98499  8.95500 16.61745
Sn -5.96996  8.95507 15.93427
Sn -2.98498  5.97001 17.19387
Sn -5.97001  5.97003 18.34795
Sn -2.98511  8.95499 19.73699
Sn -5.97048  8.95531 19.01211
Sn -2.98498  5.97000 20.46509
Sn -5.97001  5.96998 21.50112
Sn -2.98500  8.95499 23.07363
Sn -5.97004  8.95496 22.25183
Sn -2.98537  5.97000 23.81434
Sn -5.97142  5.96998 24.66365
Sn -2.98500  8.95500 26.25044
Sn -5.96999  8.95499 25.46523
Sn -2.98502  5.97000 27.00562
Sn -5.97002  5.97000 27.84248
Sn -2.98499  8.95501 29.49786
Sn -5.97001  8.95501 28.67485
Sn -2.98599  5.97002 30.26865
Sn -5.97085  5.97057 31.09183
Sn -2.98502  8.95500 32.69638
Sn -5.97002  8.95523 31.89787
Sn -2.98500  5.97000 33.47374
Sn -5.97000  5.97000 34.28631
Sn -2.98583  8.95503 35.93245
Sn -5.97422  8.95477 35.11481
Sn -2.98500  5.97001 36.69605
Sn -5.97001  5.97000 37.51900
Sn -2.98497  8.95511 39.11913
Sn -5.97004  8.95500 38.30951
Sn -2.98624  5.97066 39.93994
Sn -5.97106  5.96999 40.74292
Sn -2.98499  8.95502 42.37376
Sn -5.97001  8.95498 41.56425
Sn -2.98712  5.97005 43.15235
Sn -5.97016  5.97000 43.98743
Sn -2.98424  8.95565 45.56545
Sn -5.96984  8.95497 44.75074
Sn -2.98517  5.97005 46.39683
Sn -5.97026  5.97005 47.21088
Sn -2.98502  8.95506 48.77689
Sn -5.97000  8.95501 47.98705
Sn -2.98583  5.97012 49.59145
Sn -5.97081  5.97037 50.41493
Sn -2.98500  8.95499 52.00829
Sn -5.96999  8.95506 51.18579
Sn -2.98501  5.96999 52.84097
Sn -5.97001  5.97001 53.67852
Sn -2.98502  8.95516 55.21798
Sn -5.97005  8.95498 54.43383
Sn -2.98639  5.97057 56.01902
Sn -5.97053  5.96987 56.87761
Sn -2.98547  8.95500 58.42245
Sn -5.97359  8.95506 57.62404
Sn -2.98500  5.97000 59.18231
Sn -5.97001  5.96999 60.21870
Sn -2.98564  8.95518 61.66620
Sn -5.97014  8.95497 60.94683
Sn -2.98503  5.97003 62.33567
Sn -5.96990  5.96689 63.50250
Sn -2.98504  8.95489 64.74882
Sn -5.97001  8.95276 64.06488
Sn -2.98425  5.96967 65.31906
Sn -5.97153  5.97032 96.04978
Sn -2.98499  8.95500 97.30095
Sn -5.96996  8.95507 96.61777
Sn -2.98498  5.97001 97.87737
Sn -5.97001  5.97003 99.03145
Sn -2.98511  8.95499 100.42049
Sn -5.97048  8.95531 99.69561
Sn -2.98498  5.97000 101.14859
Sn -5.97001  5.96998 102.18462
Sn -2.98500  8.95499 103.75713
Sn -5.97004  8.95496 102.93533
Sn -2.98537  5.97000 104.49784
Sn -5.97142  5.96998 105.34715
Sn -2.98500  8.95500 106.93394
Sn -5.96999  8.95499 106.14873
Sn -2.98502  5.97000 107.68912
Sn -5.97002  5.97000 108.52598
Sn -2.98499  8.95501 110.18136
Sn -5.97001  8.95501 109.35835
Sn -2.98599  5.97002 110.95215
Sn -5.97085  5.97057 111.77533
Sn -2.98502  8.95500 113.37988
Sn -5.97002  8.95523 112.58137
Sn -2.98500  5.97000 114.15724
Sn -5.97000  5.97000 114.96981
Sn -2.98583  8.95503 116.61595
Sn -5.97422  8.95477 115.79831
Sn -2.98500  5.97001 117.37955
Sn -5.97001  5.97000 118.20250
Sn -2.98497  8.95511 119.80263
Sn -5.97004  8.95500 118.99301
Sn -2.98624  5.97066 120.62344
Sn -5.97106  5.96999 121.42642
Sn -2.98499  8.95502 123.05726
Sn -5.97001  8.95498 122.24775
Sn -2.98712  5.97005 123.83585
Sn -5.97016  5.97000 124.67093
Sn -2.98424  8.95565 126.24895
Sn -5.96984  8.95497 125.43424
Sn -2.98517  5.97005 127.08033
Sn -5.97026  5.97005 127.89438
Sn -2.98502  8.95506 129.46039
Sn -5.97000  8.95501 128.67055
Sn -2.98583  5.97012 130.27495
Sn -5.97081  5.97037 131.09843
Sn -2.98500  8.95499 132.69179
Sn -5.96999  8.95506 131.86929
Sn -2.98501  5.96999 133.52447
Sn -5.97001  5.97001 134.36202
Sn -2.98502  8.95516 135.90148
Sn -5.97005  8.95498 135.11733
Sn -2.98639  5.97057 136.70252
Sn -5.97053  5.96987 137.56111
Sn -2.98547  8.95500 139.10595
Sn -5.97359  8.95506 138.30754
Sn -2.98500  5.97000 139.86581
Sn -5.97001  5.96999 140.90220
Sn -2.98564  8.95518 142.34970
Sn -5.97014  8.95497 141.63033
Sn -2.98503  5.97003 143.01917
Sn -5.96990  5.96689 144.18600
Sn -2.98504  8.95489 145.43232
Sn -5.97001  8.95276 144.74838
Sn -2.98425  5.96967 146.00256
Sn -0.00153 -5.96968 -65.31722
Sn  2.98501 -2.98500 -64.06605
Sn  0.00004 -2.98493 -64.74923
Sn  2.98502 -5.96999 -63.48963
Sn -0.00001 -5.96997 -62.33555
Sn  2.98489 -2.98501 -60.94651
Sn -0.00048 -2.98469 -61.67139
Sn  2.98502 -5.97000 -60.21841
Sn -0.00001 -5.97002 -59.18238
Sn  2.98500 -2.98501 -57.60987
Sn -0.00004 -2.98504 -58.43167
Sn  2.98463 -5.97000 -56.86916
Sn -0.00142 -5.97002 -56.01985
Sn  2.98500 -2.98500 -54.43306
Sn  0.00001 -2.98501 -55.21827
Sn  2.98498 -5.97000 -53.67788
Sn -0.00002 -5.97000 -52.84102
Sn  2.98501 -2.98499 -51.18564
Sn -0.00001 -2.98499 -52.00865
Sn  2.98401 -5.96998 -50.41485
Sn -0.00085 -5.96943 -49.59167
Sn  2.98498 -2.98500 -47.98712
Sn -0.00002 -2.98477 -48.78563
Sn  2.98500 -5.97000 -47.20976
Sn -0.00000 -5.97000 -46.39719
Sn  2.98417 -2.98497 -44.75105
Sn -0.00422 -2.98523 -45.56869
Sn  2.98500 -5.96999 -43.98745
Sn -0.00001 -5.97000 -43.16450
Sn  2.98503 -2.98489 -41.56437
Sn -0.00004 -2.98500 -42.37399
Sn  2.98376 -5.96934 -40.74356
Sn -0.00106 -5.97001 -39.94058
Sn  2.98501 -2.98498 -38.30974
Sn -0.00001 -2.98502 -39.11925
Sn  2.98288 -5.96995 -37.53115
Sn -0.00016 -5.97000 -36.69607
Sn  2.98576 -2.98435 -35.11805
Sn  0.00016 -2.98503 -35.93276
Sn  2.98483 -5.96995 -34.28667
Sn -0.00026 -5.96995 -33.47262
Sn  2.98498 -2.98494 -31.90661
Sn -0.00000 -2.98499 -32.69645
Sn  2.98417 -5.96988 -31.09205
Sn -0.00081 -5.96963 -30.26857
Sn  2.98500 -2.98501 -28.67521
Sn  0.00001 -2.98494 -29.49771
Sn  2.98499 -5.97001 -27.84253
Sn -0.00001 -5.96999 -27.00498
Sn  2.98498 -2.98484 -25.46552
Sn -0.00005 -2.98502 -26.24967
Sn  2.98361 -5.96943 -24.66448
Sn -0.00053 -5.97013 -23.80589
Sn  2.98453 -2.98500 -22.26105
Sn -0.00359 -2.98494 -23.05946
Sn  2.98500 -5.97000 -21.50119
Sn -0.00001 -5.97001 -20.46480
Sn  2.98436 -2.98482 -19.01730
Sn -0.00014 -2.98503 -19.73667
Sn  2.98497 -5.96997 -18.34783
Sn  0.00010 -5.97311 -17.18100
Sn  2.98496 -2.98511 -15.93468
Sn -0.00001 -2.98724 -16.61862
Sn  2.98575 -5.97033 -15.36444
Sn -0.00153 -5.96968 15.36628
Sn  2.98501 -2.98500 16.61745
Sn  0.00004 -2.98493 15.93427
Sn  2.98502 -5.96999 17.19387
Sn -0.00001 -5.96997 18.34795
Sn  2.98489 -2.98501 19.73699
Sn -0.00048 -2.98469 19.01211
Sn  2.98502 -5.97000 20.46509
Sn -0.00001 -5.97002 21.50112
Sn  2.98500 -2.98501 23.07363
Sn -0.00004 -2.98504 22.25183
Sn  2.98463 -5.97000 23.81434
Sn -0.00142 -5.97002 24.66365
Sn  2.98500 -2.98500 26.25044
Sn  0.00001 -2.98501 25.46523
Sn  2.98498 -5.97000 27.00562
Sn -0.00002 -5.97000 27.84248
Sn  2.98501 -2.98499 29.49786
Sn -0.00001 -2.98499 28.67485
Sn  2.98401 -5.96998 30.26865
Sn -0.00085 -5.96943 31.09183
Sn  2.98498 -2.98500 32.69638
Sn -0.00002 -2.98477 31.89787
Sn  2.98500 -5.97000 33.47374
Sn -0.00000 -5.97000 34.28631
Sn  2.98417 -2.98497 35.93245
Sn -0.00422 -2.98523 35.11481
Sn  2.98500 -5.96999 36.69605
Sn -0.00001 -5.97000 37.51900
Sn  2.98503 -2.98489 39.11913
Sn -0.00004 -2.98500 38.30951
Sn  2.98376 -5.96934 39.93994
Sn -0.00106 -5.97001 40.74292
Sn  2.98501 -2.98498 42.37376
Sn -0.00001 -2.98502 41.56425
Sn  2.98288 -5.96995 43.15235
Sn -0.00016 -5.97000 43.98743
Sn  2.98576 -2.98435 45.56545
Sn  0.00016 -2.98503 44.75074
Sn  2.98483 -5.96995 46.39683
Sn -0.00026 -5.96995 47.21088
Sn  2.98498 -2.98494 48.77689
Sn -0.00000 -2.98499 47.98705
Sn  2.98417 -5.96988 49.59145
Sn -0.00081 -5.96963 50.41493
Sn  2.98500 -2.98501 52.00829
Sn  0.00001 -2.98494 51.18579
Sn  2.98499 -5.97001 52.84097
Sn -0.00001 -5.96999 53.67852
Sn  2.98498 -2.98484 55.21798
Sn -0.00005 -2.98502 54.43383
Sn  2.98361 -5.96943 56.01902
Sn -0.00053 -5.97013 56.87761
Sn  2.98453 -2.98500 58.42245
Sn -0.00359 -2.98494 57.62404
Sn  2.98500 -5.97000 59.18231
Sn -0.00001 -5.97001 60.21870
Sn  2.98436 -2.98482 61.66620
Sn -0.00014 -2.98503 60.94683
Sn  2.98497 -5.96997 62.33567
Sn  0.00010 -5.97311 63.50250
Sn  2.98496 -2.98511 64.74882
Sn -0.00001 -2.98724 64.06488
Sn  2.98575 -5.97033 65.31906
Sn -0.00153 -5.96968 96.04978
Sn  2.98501 -2.98500 97.30095
Sn  0.00004 -2.98493 96.61777
Sn  2.98502 -5.96999 97.87737
Sn -0.00001 -5.96997 99.03145
Sn  2.98489 -2.98501 100.42049
Sn -0.00048 -2.98469 99.69561
Sn  2.98502 -5.97000 101.14859
Sn -0.00001 -5.97002 102.18462
Sn  2.98500 -2.98501 103.75713
Sn -0.00004 -2.98504 102.93533
Sn  2.98463 -5.97000 104.49784
Sn -0.00142 -5.97002 105.34715
Sn  2.98500 -2.98500 106.93394
Sn  0.00001 -2.98501 106.14873
Sn  2.98498 -5.97000 107.68912
Sn -0.00002 -5.97000 108.52598
Sn  2.98501 -2.98499 110.18136
Sn -0.00001 -2.98499 109.35835
Sn  2.98401 -5.96998 110.95215
Sn -0.00085 -5.96943 111.77533
Sn  2.98498 -2.98500 113.37988
Sn -0.00002 -2.98477 112.58137
Sn  2.98500 -5.97000 114.15724
Sn -0.00000 -5.97000 114.96981
Sn  2.98417 -2.98497 116.61595
Sn -0.00422 -2.98523 115.79831
Sn  2.98500 -5.96999 117.37955
Sn -0.00001 -5.97000 118.20250
Sn  2.98503 -2.98489 119.80263
Sn -0.00004 -2.98500 118.99301
Sn  2.98376 -5.96934 120.62344
Sn -0.00106 -5.97001 121.42642
Sn  2.98501 -2.98498 123.05726
Sn -0.00001 -2.98502 122.24775
Sn  2.98288 -5.96995 123.83585
Sn -0.00016 -5.97000 124.67093
Sn  2.98576 -2.98435 126.24895
Sn  0.00016 -2.98503 125.43424
Sn  2.98483 -5.96995 127.08033
Sn -0.00026 -5.96995 127.89438
Sn  2.98498 -2.98494 129.46039
Sn -0.00000 -2.98499 128.67055
Sn  2.98417 -5.96988 130.27495
Sn -0.00081 -5.96963 131.09843
Sn  2.98500 -2.98501 132.69179
Sn  0.00001 -2.98494 131.86929
Sn  2.98499 -5.97001 133.52447
Sn -0.00001 -5.96999 134.36202
Sn  2.98498 -2.98484 135.90148
Sn -0.00005 -2.98502 135.11733
Sn  2.98361 -5.96943 136.70252
Sn -0.00053 -5.97013 137.56111
Sn  2.98453 -2.98500 139.10595
Sn -0.00359 -2.98494 138.30754
Sn  2.98500 -5.97000 139.86581
Sn -0.00001 -5.97001 140.90220
Sn  2.98436 -2.98482 142.34970
Sn -0.00014 -2.98503 141.63033
Sn  2.98497 -5.96997 143.01917
Sn  0.00010 -5.97311 144.18600
Sn  2.98496 -2.98511 145.43232
Sn -0.00001 -2.98724 144.74838
Sn  2.98575 -5.97033 146.00256
Sn -0.00153  0.00032 -65.31722
Sn  2.98501  2.98500 -64.06605
Sn  0.00004  2.98507 -64.74923
Sn  2.98502  0.00001 -63.48963
Sn -0.00001  0.00003 -62.33555
Sn  2.98489  2.98499 -60.94651
Sn -0.00048  2.98531 -61.67139
Sn  2.98502  0.00000 -60.21841
Sn -0.00001 -0.00002 -59.18238
Sn  2.98500  2.98499 -57.60987
Sn -0.00004  2.98496 -58.43167
Sn  2.98463 -0.00000 -56.86916
Sn -0.00142 -0.00002 -56.01985
Sn  2.98500  2.98500 -54.43306
Sn  0.00001  2.98499 -55.21827
Sn  2.98498  0.00000 -53.67788
Sn -0.00002 -0.00000 -52.84102
Sn  2.98501  2.98501 -51.18564
Sn -0.00001  2.98501 -52.00865
Sn  2.98401  0.00002 -50.41485
Sn -0.00085  0.00057 -49.59167
Sn  2.98498  2.98500 -47.98712
Sn -0.00002  2.98523 -48.78563
Sn  2.98500 -0.00000 -47.20976
Sn -0.00000 -0.00000 -46.39719
Sn  2.98417  2.98503 -44.75105
Sn -0.00422  2.98477 -45.56869
Sn  2.98500  0.00001 -43.98745
Sn -0.00001  0.00000 -43.16450
Sn  2.98503  2.98511 -41.56437
Sn -0.00004  2.98500 -42.37399
Sn  2.98376  0.00066 -40.74356
Sn -0.00106 -0.00001 -39.94058
Sn  2.98501  2.98502 -38.30974
Sn -0.00001  2.98498 -39.11925
Sn  2.98288  0.00005 -37.53115
Sn -0.00016  0.00000 -36.69607
Sn  2.98576  2.98565 -35.11805
Sn  0.00016  2.98497 -35.93276
Sn  2.98483  0.00005 -34.28667
Sn -0.00026  0.00005 -33.47262
Sn  2.98498  2.98506 -31.90661
Sn -0.00000  2.98501 -32.69645
Sn  2.98417  0.00012 -31.09205
Sn -0.00081  0.00037 -30.26857
Sn  2.98500  2.98499 -28.67521
Sn  0.00001  2.98506 -29.49771
Sn  2.98499 -0.00001 -27.84253
Sn -0.00001  0.00001 -27.00498
Sn  2.98498  2.98516 -25.46552
Sn -0.00005  2.98498 -26.24967
Sn  2.98361  0.00057 -24.66448
Sn -0.00053 -0.00013 -23.80589
Sn  2.98453  2.98500 -22.26105
Sn -0.00359  2.98506 -23.05946
Sn  2.98500 -0.00000 -21.50119
Sn -0.00001 -0.00001 -20.46480
Sn  2.98436  2.98518 -19.01730
Sn -0.00014  2.98497 -19.73667
Sn  2.98497  0.00003 -18.34783
Sn  0.00010 -0.00311 -17.18100
Sn  2.98496  2.98489 -15.93468
Sn -0.00001  2.98276 -16.61862
Sn  2.98575 -0.00033 -15.36444
Sn -0.00153  0.00032 15.36628
Sn  2.98501  2.98500 16.61745
Sn  0.00004  2.98507 15.93427
Sn  2.98502  0.00001 17.19387
Sn -0.00001  0.00003 18.34795
Sn  2.98489  2.98499 19.73699
Sn -0.00048  2.98531 19.01211
Sn  2.98502  0.00000 20.46509
Sn -0.00001 -0.00002 21.50112
Sn  2.98500  2.98499 23.07363
Sn -0.00004  2.98496 22.25183
Sn  2.98463 -0.00000 23.81434
Sn -0.00142 -0.00002 24.66365
Sn  2.98500  2.98500 26.25044
Sn  0.00001  2.98499 25.46523
Sn  2.98498  0.00000 27.00562
Sn -0.00002 -0.00000 27.84248
Sn  2.98501  2.98501 29.49786
Sn -0.00001  2.98501 28.67485
Sn  2.98401  0.00002 30.26865
Sn -0.00085  0.00057 31.09183
Sn  2.98498  2.98500 32.69638
Sn -0.00002  2.98523 31.89787
Sn  2.98500 -0.00000 33.47374
Sn -0.00000 -0.00000 34.28631
Sn  2.98417  2.98503 35.93245
Sn -0.00422  2.98477 35.11481
Sn  2.98500  0.00001 36.69605
Sn -0.00001  0.00000 37.51900
Sn  2.98503  2.98511 39.11913
Sn -0.00004  2.98500 38.30951
Sn  2.98376  0.00066 39.93994
Sn -0.00106 -0.00001 40.74292
Sn  2.98501  2.98502 42.37376
Sn -0.00001  2.98498 41.56425
Sn  2.98288  0.00005 43.15235
Sn -0.00016  0.00000 43.98743
Sn  2.98576  2.98565 45.56545
Sn  0.00016  2.98497 44.75074
Sn  2.98483  0.00005 46.39683
Sn -0.00026  0.00005 47.21088
Sn  2.98498  2.98506 48.77689
Sn -0.00000  2.98501 47.98705
Sn  2.98417  0.00012 49.59145
Sn -0.00081  0.00037 50.41493
Sn  2.98500  2.98499 52.00829
Sn  0.00001  2.98506 51.18579
Sn  2.98499 -0.00001 52.84097
Sn -0.00001  0.00001 53.67852
Sn  2.98498  2.98516 55.21798
Sn -0.00005  2.98498 54.43383
Sn  2.98361  0.00057 56.01902
Sn -0.00053 -0.00013 56.87761
Sn  2.98453  2.98500 58.42245
Sn -0.00359  2.98506 57.62404
Sn  2.98500 -0.00000 59.18231
Sn -0.00001 -0.00001 60.21870
Sn  2.98436  2.98518 61.66620
Sn -0.00014  2.98497 60.94683
Sn  2.98497  0.00003 62.33567
Sn  0.00010 -0.00311 63.50250
Sn  2.98496  2.98489 64.74882
Sn -0.00001  2.98276 64.06488
Sn  2.98575 -0.00033 65.31906
Sn -0.00153  0.00032 96.04978
Sn  2.98501  2.98500 97.30095
Sn  0.00004  2.98507 96.61777
Sn  2.98502  0.00001 97.87737
Sn -0.00001  0.00003 99.03145
Sn  2.98489  2.98499 100.42049
Sn -0.00048  2.98531 99.69561
Sn  2.98502  0.00000 101.14859
Sn -0.00001 -0.00002 102.18462
Sn  2.98500  2.98499 103.75713
Sn -0.00004  2.98496 102.93533
Sn  2.98463 -0.00000 104.49784
Sn -0.00142 -0.00002 105.34715
Sn  2.98500  2.98500 106.93394
Sn  0.00001  2.98499 106.14873
Sn  2.98498  0.00000 107.68912
Sn -0.00002 -0.00000 108.52598
Sn  2.98501  2.98501 110.18136
Sn -0.00001  2.98501 109.35835
Sn  2.98401  0.00002 110.95215
Sn -0.00085  0.00057 111.77533
Sn  2.98498  2.98500 113.37988
Sn -0.00002  2.98523 112.58137
Sn  2.98500 -0.00000 114.15724
Sn -0.00000 -0.00000 114.96981
Sn  2.98417  2.98503 116.61595
Sn -0.00422  2.98477 115.79831
Sn  2.98500  0.00001 117.37955
Sn -0.00001  0.00000 118.20250
Sn  2.98503  2.98511 119.80263
Sn -0.00004  2.98500 118.99301
Sn  2.98376  0.00066 120.62344
Sn -0.00106 -0.00001 121.42642
Sn  2.98501  2.98502 123.05726
Sn -0.00001  2.98498 122.24775
Sn  2.98288  0.00005 123.83585
Sn -0.00016  0.00000 124.67093
Sn  2.98576  2.98565 126.24895
Sn  0.00016  2.98497 125.43424
Sn  2.98483  0.00005 127.08033
Sn -0.00026  0.00005 127.89438
Sn  2.98498  2.98506 129.46039
Sn -0.00000  2.98501 128.67055
Sn  2.98417  0.00012 130.27495
Sn -0.00081  0.00037 131.09843
Sn  2.98500  2.98499 132.69179
Sn  0.00001  2.98506 131.86929
Sn  2.98499 -0.00001 133.52447
Sn -0.00001  0.00001 134.36202
Sn  2.98498  2.98516 135.90148
Sn -0.00005  2.98498 135.11733
Sn  2.98361  0.00057 136.70252
Sn -0.00053 -0.00013 137.56111
Sn  2.98453  2.98500 139.10595
Sn -0.00359  2.98506 138.30754
Sn  2.98500 -0.00000 139.86581
Sn -0.00001 -0.00001 140.90220
Sn  2.98436  2.98518 142.34970
Sn -0.00014  2.98497 141.63033
Sn  2.98497  0.00003 143.01917
Sn  0.00010 -0.00311 144.18600
Sn  2.98496  2.98489 145.43232
Sn -0.00001  2.98276 144.74838
Sn  2.98575 -0.00033 146.00256
Sn -0.00153  5.97032 -65.31722
Sn  2.98501  8.95500 -64.06605
Sn  0.00004  8.95507 -64.74923
Sn  2.98502  5.97001 -63.48963
Sn -0.00001  5.97003 -62.33555
Sn  2.98489  8.95499 -60.94651
Sn -0.00048  8.95531 -61.67139
Sn  2.98502  5.97000 -60.21841
Sn -0.00001  5.96998 -59.18238
Sn  2.98500  8.95499 -57.60987
Sn -0.00004  8.95496 -58.43167
Sn  2.98463  5.97000 -56.86916
Sn -0.00142  5.96998 -56.01985
Sn  2.98500  8.95500 -54.43306
Sn  0.00001  8.95499 -55.21827
Sn  2.98498  5.97000 -53.67788
Sn -0.00002  5.97000 -52.84102
Sn  2.98501  8.95501 -51.18564
Sn -0.00001  8.95501 -52.00865
Sn  2.98401  5.97002 -50.41485
Sn -0.00085  5.97057 -49.59167
Sn  2.98498  8.95500 -47.98712
Sn -0.00002  8.95523 -48.78563
Sn  2.98500  5.97000 -47.20976
Sn -0.00000  5.97000 -46.39719
Sn  2.98417  8.95503 -44.75105
Sn -0.00422  8.95477 -45.56869
Sn  2.98500  5.97001 -43.98745
Sn -0.00001  5.97000 -43.16450
Sn  2.98503  8.95511 -41.56437
Sn -0.00004  8.95500 -42.37399
Sn  2.98376  5.97066 -40.74356
Sn -0.00106  5.96999 -39.94058
Sn  2.98501  8.95502 -38.30974
Sn -0.00001  8.95498 -39.11925
Sn  2.98288  5.97005 -37.53115
Sn -0.00016  5.97000 -36.69607
Sn  2.98576  8.95565 -35.11805
Sn  0.00016  8.95497 -35.93276
Sn  2.98483  5.97005 -34.28667
Sn -0.00026  5.97005 -33.47262
Sn  2.98498  8.95506 -31.90661
Sn -0.00000  8.95501 -32.69645
Sn  2.98417  5.97012 -31.09205
Sn -0.00081  5.97037 -30.26857
Sn  2.98500  8.95499 -28.67521
Sn  0.00001  8.95506 -29.49771
Sn  2.98499  5.96999 -27.84253
Sn -0.00001  5.97001 -27.00498
Sn  2.98498  8.95516 -25.46552
Sn -0.00005  8.95498 -26.24967
Sn  2.98361  5.97057 -24.66448
Sn -0.00053  5.96987 -23.80589
Sn  2.98453  8.95500 -22.26105
Sn -0.00359  8.95506 -23.05946
Sn  2.98500  5.97000 -21.50119
Sn -0.00001  5.96999 -20.46480
Sn  2.98436  8.95518 -19.01730
Sn -0.00014  8.95497 -19.73667
Sn  2.98497  5.97003 -18.34783
Sn  0.00010  5.96689 -17.18100
Sn  2.98496  8.95489 -15.93468
Sn -0.00001  8.95276 -16.61862
Sn  2.98575  5.96967 -15.36444
Sn -0.00153  5.97032 15.36628
Sn  2.98501  8.95500 16.61745
Sn  0.00004  8.95507 15.93427
Sn  2.98502  5.97001 17.19387
Sn -0.00001  5.97003 18.34795
Sn  2.98489  8.95499 19.73699
Sn -0.00048  8.95531 19.01211
Sn  2.98502  5.97000 20.46509
Sn -0.00001  5.96998 21.50112
Sn  2.98500  8.95499 23.07363
Sn -0.00004  8.95496 22.25183
Sn  2.98463  5.97000 23.81434
Sn -0.00142  5.96998 24.66365
Sn  2.98500  8.95500 26.25044
Sn  0.00001  8.95499 25.46523
Sn  2.98498  5.97000 27.00562
Sn -0.00002  5.97000 27.84248
Sn  2.98501  8.95501 29.49786
Sn -0.00001  8.95501 28.67485
Sn  2.98401  5.97002 30.26865
Sn -0.00085  5.97057 31.09183
Sn  2.98498  8.95500 32.69638
Sn -0.00002  8.95523 31.89787
Sn  2.98500  5.97000 33.47374
Sn -0.00000  5.97000 34.28631
Sn  2.98417  8.95503 35.93245
Sn -0.00422  8.95477 35.11481
Sn  2.98500  5.97001 36.69605
Sn -0.00001  5.97000 37.51900
Sn  2.98503  8.95511 39.11913
Sn -0.00004  8.95500 38.30951
Sn  2.98376  5.97066 39.93994
Sn -0.00106  5.96999 40.74292
Sn  2.98501  8.95502 42.37376
Sn -0.00001  8.95498 41.56425
Sn  2.98288  5.97005 43.15235
Sn -0.00016  5.97000 43.98743
Sn  2.98576  8.95565 45.56545
Sn  0.00016  8.95497 44.75074
Sn  2.98483  5.97005 46.39683
Sn -0.00026  5.97005 47.21088
Sn  2.98498  8.95506 48.77689
Sn -0.00000  8.95501 47.98705
Sn  2.98417  5.97012 49.59145
Sn -0.00081  5.97037 50.41493
Sn  2.98500  8.95499 52.00829
Sn  0.00001  8.95506 51.18579
Sn  2.98499  5.96999 52.84097
Sn -0.00001  5.97001 53.67852
Sn  2.98498  8.95516 55.21798
Sn -0.00005  8.95498 54.43383
Sn  2.98361  5.97057 56.01902
Sn -0.00053  5.96987 56.87761
Sn  2.98453  8.95500 58.42245
Sn -0.00359  8.95506 57.62404
Sn  2.98500  5.97000 59.18231
Sn -0.00001  5.96999 60.21870
Sn  2.98436  8.95518 61.66620
Sn -0.00014  8.95497 60.94683
Sn  2.98497  5.97003 62.33567
Sn  0.00010  5.96689 63.50250
Sn  2.98496  8.95489 64.74882
Sn -0.00001  8.95276 64.06488
Sn  2.98575  5.96967 65.31906
Sn -0.00153  5.97032 96.04978
Sn  2.98501  8.95500 97.30095
Sn  0.00004  8.95507 96.61777
Sn  2.98502  5.97001 97.87737
Sn -0.00001  5.97003 99.03145
Sn  2.98489  8.95499 100.42049
Sn -0.00048  8.95531 99.69561
Sn  2.98502  5.97000 101.14859
Sn -0.00001  5.96998 102.18462
Sn  2.98500  8.95499 103.75713
Sn -0.00004  8.95496 102.93533
Sn  2.98463  5.97000 104.49784
Sn -0.00142  5.96998 105.34715
Sn  2.98500  8.95500 106.93394
Sn  0.00001  8.95499 106.14873
Sn  2.98498  5.97000 107.68912
Sn -0.00002  5.97000 108.52598
Sn  2.98501  8.95501 110.18136
Sn -0.00001  8.95501 109.35835
Sn  2.98401  5.97002 110.95215
Sn -0.00085  5.97057 111.77533
Sn  2.98498  8.95500 113.37988
Sn -0.00002  8.95523 112.58137
Sn  2.98500  5.97000 114.15724
Sn -0.00000  5.97000 114.96981
Sn  2.98417  8.95503 116.61595
Sn -0.00422  8.95477 115.79831
Sn  2.98500  5.97001 117.37955
Sn -0.00001  5.97000 118.20250
Sn  2.98503  8.95511 119.80263
Sn -0.00004  8.95500 118.99301
Sn  2.98376  5.97066 120.62344
Sn -0.00106  5.96999 121.42642
Sn  2.98501  8.95502 123.05726
Sn -0.00001  8.95498 122.24775
Sn  2.98288  5.97005 123.83585
Sn -0.00016  5.97000 124.67093
Sn  2.98576  8.95565 126.24895
Sn  0.00016  8.95497 125.43424
Sn  2.98483  5.97005 127.08033
Sn -0.00026  5.97005 127.89438
Sn  2.98498  8.95506 129.46039
Sn -0.00000  8.95501 128.67055
Sn  2.98417  5.97012 130.27495
Sn -0.00081  5.97037 131.09843
Sn  2.98500  8.95499 132.69179
Sn  0.00001  8.95506 131.86929
Sn  2.98499  5.96999 133.52447
Sn -0.00001  5.97001 134.36202
Sn  2.98498  8.95516 135.90148
Sn -0.00005  8.95498 135.11733
Sn  2.98361  5.97057 136.70252
Sn -0.00053  5.96987 137.56111
Sn  2.98453  8.95500 139.10595
Sn -0.00359  8.95506 138.30754
Sn  2.98500  5.97000 139.86581
Sn -0.00001  5.96999 140.90220
Sn  2.98436  8.95518 142.34970
Sn -0.00014  8.95497 141.63033
Sn  2.98497  5.97003 143.01917
Sn  0.00010  5.96689 144.18600
Sn  2.98496  8.95489 145.43232
Sn -0.00001  8.95276 144.74838
Sn  2.98575  5.96967 146.00256
Sn  5.96847 -5.96968 -65.31722
Sn  8.95501 -2.98500 -64.06605
Sn  5.97004 -2.98493 -64.74923
Sn  8.95502 -5.96999 -63.48963
Sn  5.96999 -5.96997 -62.33555
Sn  8.95489 -2.98501 -60.94651
Sn  5.96952 -2.98469 -61.67139
Sn  8.95502 -5.97000 -60.21841
Sn  5.96999 -5.97002 -59.18238
Sn  8.95500 -2.98501 -57.60987
Sn  5.96996 -2.98504 -58.43167
Sn  8.95463 -5.97000 -56.86916
Sn  5.96858 -5.97002 -56.01985
Sn  8.95500 -2.98500 -54.43306
Sn  5.97001 -2.98501 -55.21827
Sn  8.95498 -5.97000 -53.67788
Sn  5.96998 -5.97000 -52.84102
Sn  8.95501 -2.98499 -51.18564
Sn  5.96999 -2.98499 -52.00865
Sn  8.95401 -5.96998 -50.41485
Sn  5.96915 -5.96943 -49.59167
Sn  8.95498 -2.98500 -47.98712
Sn  5.96998 -2.98477 -48.78563
Sn  8.95500 -5.97000 -47.20976
Sn  5.97000 -5.97000 -46.39719
Sn  8.95417 -2.98497 -44.75105
Sn  5.96578 -2.98523 -45.56869
Sn  8.95500 -5.96999 -43.98745
Sn  5.96999 -5.97000 -43.16450
Sn  8.95503 -2.98489 -41.56437
Sn  5.96996 -2.98500 -42.37399
Sn  8.95376 -5.96934 -40.74356
Sn  5.96894 -5.97001 -39.94058
Sn  8.95501 -2.98498 -38.30974
Sn  5.96999 -2.98502 -39.11925
Sn  8.95288 -5.96995 -37.53115
Sn  5.96984 -5.97000 -36.69607
Sn  8.95576 -2.98435 -35.11805
Sn  5.97016 -2.98503 -35.93276
Sn  8.95483 -5.96995 -34.28667
Sn  5.96974 -5.96995 -33.47262
Sn  8.95498 -2.98494 -31.90661
Sn  5.97000 -2.98499 -32.69645
Sn  8.95417 -5.96988 -31.09205
Sn  5.96919 -5.96963 -30.26857
Sn  8.95500 -2.98501 -28.67521
Sn  5.97001 -2.98494 -29.49771
Sn  8.95499 -5.97001 -27.84253
Sn  5.96999 -5.96999 -27.00498
Sn  8.95498 -2.98484 -25.46552
Sn  5.96995 -2.98502 -26.24967
Sn  8.95361 -5.96943 -24.66448
Sn  5.96947 -5.97013 -23.80589
Sn  8.95453 -2.98500 -22.26105
Sn  5.96641 -2.98494 -23.05946
Sn  8.95500 -5.97000 -21.50119
Sn  5.96999 -5.97001 -20.46480
Sn  8.95436 -2.98482 -19.01730
Sn  5.96986 -2.98503 -19.73667
Sn  8.95497 -5.96997 -18.34783
Sn  5.97010 -5.97311 -17.18100
Sn  8.95496 -2.98511 -15.93468
Sn  5.96999 -2.98724 -16.61862
Sn  8.95575 -5.97033 -15.36444
Sn  5.96847 -5.96968 15.36628
Sn  8.95501 -2.98500 16.61745
Sn  5.97004 -2.98493 15.93427
Sn  8.95502 -5.96999 17.19387
Sn  5.96999 -5.96997 18.34795
Sn  8.95489 -2.98501 19.73699
Sn  5.96952 -2.98469 19.01211
Sn  8.95502 -5.97000 20.46509
Sn  5.96999 -5.97002 21.50112
Sn  8.95500 -2.98501 23.07363
Sn  5.96996 -2.98504 22.25183
Sn  8.95463 -5.97000 23.81434
Sn  5.96858 -5.97002 24.66365
Sn  8.95500 -2.98500 26.25044
Sn  5.97001 -2.98501 25.46523
Sn  8.95498 -5.97000 27.00562
Sn  5.96998 -5.97000 27.84248
Sn  8.95501 -2.98499 29.49786
Sn  5.96999 -2.98499 28.67485
Sn  8.95401 -5.96998 30.26865
Sn  5.96915 -5.96943 31.09183
Sn  8.95498 -2.98500 32.69638
Sn  5.96998 -2.98477 31.89787
Sn  8.95500 -5.97000 33.47374
Sn  5.97000 -5.97000 34.28631
Sn  8.95417 -2.98497 35.93245
Sn  5.96578 -2.98523 35.11481
Sn  8.95500 -5.96999 36.69605
Sn  5.96999 -5.97000 37.51900
Sn  8.95503 -2.98489 39.11913
Sn  5.96996 -2.98500 38.30951
Sn  8.95376 -5.96934 39.93994
Sn  5.96894 -5.97001 40.74292
Sn  8.95501 -2.98498 42.37376
Sn  5.96999 -2.98502 41.56425
Sn  8.95288 -5.96995 43.15235
Sn  5.96984 -5.97000 43.98743
Sn  8.95576 -2.98435 45.56545
Sn  5.97016 -2.98503 44.75074
Sn  8.95483 -5.96995 46.39683
Sn  5.96974 -5.96995 47.21088
Sn  8.95498 -2.98494 48.77689
Sn  5.97000 -2.98499 47.98705
Sn  8.95417 -5.96988 49.59145
Sn  5.96919 -5.96963 50.41493
Sn  8.95500 -2.98501 52.00829
Sn  5.97001 -2.98494 51.18579
Sn  8.95499 -5.97001 52.84097
Sn  5.96999 -5.96999 53.67852
Sn  8.95498 -2.98484 55.21798
Sn  5.96995 -2.98502 54.43383
Sn  8.95361 -5.96943 56.01902
Sn  5.96947 -5.97013 56.87761
Sn  8.95453 -2.98500 58.42245
Sn  5.96641 -2.98494 57.62404
Sn  8.95500 -5.97000 59.18231
Sn  5.96999 -5.97001 60.21870
Sn  8.95436 -2.98482 61.66620
Sn  5.96986 -2.98503 60.94683
Sn  8.95497 -5.96997 62.33567
Sn  5.97010 -5.97311 63.50250
Sn  8.95496 -2.98511 64.74882
Sn  5.96999 -2.98724 64.06488
Sn  8.95575 -5.97033 65.31906
Sn  5.96847 -5.96968 96.04978
Sn  8.95501 -2.98500 97.30095
Sn  5.97004 -2.98493 96.61777
Sn  8.95502 -5.96999 97.87737
Sn  5.96999 -5.96997 99.03145
Sn  8.95489 -2.98501 100.42049
Sn  5.96952 -2.98469 99.69561
Sn  8.95502 -5.97000 101.14859
Sn  5.96999 -5.97002 102.18462
Sn  8.95500 -2.98501 103.75713
Sn  5.96996 -2.98504 102.93533
Sn  8.95463 -5.97000 104.49784
Sn  5.96858 -5.97002 105.34715
Sn  8.95500 -2.98500 106.93394
Sn  5.97001 -2.98501 106.14873
Sn  8.95498 -5.97000 107.68912
Sn  5.96998 -5.97000 108.52598
Sn  8.95501 -2.98499 110.18136
Sn  5.96999 -2.98499 109.35835
Sn  8.95401 -5.96998 110.95215
Sn  5.96915 -5.96943 111.77533
Sn  8.95498 -2.98500 113.37988
Sn  5.96998 -2.98477 112.58137
Sn  8.95500 -5.97000 114.15724
Sn  5.97000 -5.97000 114.96981
Sn  8.95417 -2.98497 116.61595
Sn  5.96578 -2.98523 115.79831
Sn  8.95500 -5.96999 117.37955
Sn  5.96999 -5.97000 118.20250
Sn  8.95503 -2.98489 119.80263
Sn  5.96996 -2.98500 118.99301
Sn  8.95376 -5.96934 120.62344
Sn  5.96894 -5.97001 121.42642
Sn  8.95501 -2.98498 123.05726
Sn  5.96999 -2.98502 122.24775
Sn  8.95288 -5.96995 123.83585
Sn  5.96984 -5.97000 124.67093
Sn  8.95576 -2.98435 126.24895
Sn  5.97016 -2.98503 125.43424
Sn  8.95483 -5.96995 127.08033
Sn  5.96974 -5.96995 127.89438
Sn  8.95498 -2.98494 129.46039
Sn  5.97000 -2.98499 128.67055
Sn  8.95417 -5.96988 130.27495
Sn  5.96919 -5.96963 131.09843
Sn  8.95500 -2.98501 132.69179
Sn  5.97001 -2.98494 131.86929
Sn  8.95499 -5.97001 133.52447
Sn  5.96999 -5.96999 134.36202
Sn  8.95498 -2.98484 135.90148
Sn  5.96995 -2.98502 135.11733
Sn  8.95361 -5.96943 136.70252
Sn  5.96947 -5.97013 137.56111
Sn  8.95453 -2.98500 139.10595
Sn  5.96641 -2.98494 138.30754
Sn  8.95500 -5.97000 139.86581
Sn  5.96999 -5.97001 140.90220
Sn  8.95436 -2.98482 142.34970
Sn  5.96986 -2.98503 141.63033
Sn  8.95497 -5.96997 143.01917
Sn  5.97010 -5.97311 144.18600
Sn  8.95496 -2.98511 145.43232
Sn  5.96999 -2.98724 144.74838
Sn  8.95575 -5.97033 146.00256
Sn  5.96847  0.00032 -65.31722
Sn  8.95501  2.98500 -64.06605
Sn  5.97004  2.98507 -64.74923
Sn  8.95502  0.00001 -63.48963
Sn  5.96999  0.00003 -62.33555
Sn  8.95489  2.98499 -60.94651
Sn  5.96952  2.98531 -61.67139
Sn  8.95502  0.00000 -60.21841
Sn  5.96999 -0.00002 -59.18238
Sn  8.95500  2.98499 -57.60987
Sn  5.96996  2.98496 -58.43167
Sn  8.95463 -0.00000 -56.86916
Sn  5.96858 -0.00002 -56.01985
Sn  8.95500  2.98500 -54.43306
Sn  5.97001  2.98499 -55.21827
Sn  8.95498  0.00000 -53.67788
Sn  5.96998 -0.00000 -52.84102
Sn  8.95501  2.98501 -51.18564
Sn  5.96999  2.98501 -52.00865
Sn  8.95401  0.00002 -50.41485
Sn  5.96915  0.00057 -49.59167
Sn  8.95498  2.98500 -47.98712
Sn  5.96998  2.98523 -48.78563
Sn  8.95500 -0.00000 -47.20976
Sn  5.97000 -0.00000 -46.39719
Sn  8.95417  2.98503 -44.75105
Sn  5.96578  2.98477 -45.56869
Sn  8.95500  0.00001 -43.98745
Sn  5.96999  0.00000 -43.16450
Sn  8.95503  2.98511 -41.56437
Sn  5.96996  2.98500 -42.37399
Sn  8.95376  0.00066 -40.74356
Sn  5.96894 -0.00001 -39.94058
Sn  8.95501  2.98502 -38.30974
Sn  5.96999  2.98498 -39.11925
Sn  8.95288  0.00005 -37.53115
Sn  5.96984  0.00000 -36.69607
Sn  8.95576  2.98565 -35.11805
Sn  5.97016  2.98497 -35.93276
Sn  8.95483  0.00005 -34.28667
Sn  5.96974  0.00005 -33.47262
Sn  8.95498  2.98506 -31.90661
Sn  5.97000  2.98501 -32.69645
Sn  8.95417  0.00012 -31.09205
Sn  5.96919  0.00037 -30.26857
Sn  8.95500  2.98499 -28.67521
Sn  5.97001  2.98506 -29.49771
Sn  8.95499 -0.00001 -27.84253
Sn  5.96999  0.00001 -27.00498
Sn  8.95498  2.98516 -25.46552
Sn  5.96995  2.98498 -26.24967
Sn  8.95361  0.00057 -24.66448
Sn  5.96947 -0.00013 -23.80589
Sn  8.95453  2.98500 -22.26105
Sn  5.96641  2.98506 -23.05946
Sn  8.95500 -0.00000 -21.50119
Sn  5.96999 -0.00001 -20.46480
Sn  8.95436  2.98518 -19.01730
Sn  5.96986  2.98497 -19.73667
Sn  8.95497  0.00003 -18.34783
Sn  5.97010 -0.00311 -17.18100
Sn  8.95496  2.98489 -15.93468
Sn  5.96999  2.98276 -16.61862
Sn  8.95575 -0.00033 -15.36444
Sn  5.96847  0.00032 15.36628
Sn  8.95501  2.98500 16.61745
Sn  5.97004  2.98507 15.93427
Sn  8.95502  0.00001 17.19387
Sn  5.96999  0.00003 18.34795
Sn  8.95489  2.98499 19.73699
Sn  5.96952  2.98531 19.01211
Sn  8.95502  0.00000 20.46509
Sn  5.96999 -0.00002 21.50112
Sn  8.95500  2.98499 23.07363
Sn  5.96996  2.98496 22.25183
Sn  8.95463 -0.00000 23.81434
Sn  5.96858 -0.00002 24.66365
Sn  8.95500  2.98500 26.25044
Sn  5.97001  2.98499 25.46523
Sn  8.95498  0.00000 27.00562
Sn  5.96998 -0.00000 27.84248
Sn  8.95501  2.98501 29.49786
Sn  5.96999  2.98501 28.67485
Sn  8.95401  0.00002 30.26865
Sn  5.96915  0.00057 31.09183
Sn  8.95498  2.98500 32.69638
Sn  5.96998  2.98523 31.89787
Sn  8.95500 -0.00000 33.47374
Sn  5.97000 -0.00000 34.28631
Sn  8.95417  2.98503 35.93245
Sn  5.96578  2.98477 35.11481
Sn  8.95500  0.00001 36.69605
Sn  5.96999  0.00000 37.51900
Sn  8.95503  2.98511 39.11913
Sn  5.96996  2.98500 38.30951
Sn  8.95376  0.00066 39.93994
Sn  5.96894 -0.00001 40.74292
Sn  8.95501  2.98502 42.37376
Sn  5.96999  2.98498 41.56425
Sn  8.95288  0.00005 43.15235
Sn  5.96984  0.00000 43.98743
Sn  8.95576  2.98565 45.56545
Sn  5.97016  2.98497 44.75074
Sn  8.95483  0.00005 46.39683
Sn  5.96974  0.00005 47.21088
Sn  8.95498  2.98506 48.77689
Sn  5.97000  2.98501 47.98705
Sn  8.95417  0.00012 49.59145
Sn  5.96919  0.00037 50.41493
Sn  8.95500  2.98499 52.00829
Sn  5.97001  2.98506 51.18579
Sn  8.95499 -0.00001 52.84097
Sn  5.96999  0.00001 53.67852
Sn  8.95498  2.98516 55.21798
Sn  5.96995  2.98498 54.43383
Sn  8.95361  0.00057 56.01902
Sn  5.96947 -0.00013 56.87761
Sn  8.95453  2.98500 58.42245
Sn  5.96641  2.98506 57.62404
Sn  8.95500 -0.00000 59.18231
Sn  5.96999 -0.00001 60.21870
Sn  8.95436  2.98518 61.66620
Sn  5.96986  2.98497 60.94683
Sn  8.95497  0.00003 62.33567
Sn  5.97010 -0.00311 63.50250
Sn  8.95496  2.98489 64.74882
Sn  5.96999  2.98276 64.06488
Sn  8.95575 -0.00033 65.31906
Sn  5.96847  0.00032 96.04978
Sn  8.95501  2.98500 97.30095
Sn  5.97004  2.98507 96.61777
Sn  8.95502  0.00001 97.87737
Sn  5.96999  0.00003 99.03145
Sn  8.95489  2.98499 100.42049
Sn  5.96952  2.98531 99.69561
Sn  8.95502  0.00000 101.14859
Sn  5.96999 -0.00002 102.18462
Sn  8.95500  2.98499 103.75713
Sn  5.96996  2.98496 102.93533
Sn  8.95463 -0.00000 104.49784
Sn  5.96858 -0.00002 105.34715
Sn  8.95500  2.98500 106.93394
Sn  5.97001  2.98499 106.14873
Sn  8.95498  0.00000 107.68912
Sn  5.96998 -0.00000 108.52598
Sn  8.95501  2.98501 110.18136
Sn  5.96999  2.98501 109.35835
Sn  8.95401  0.00002 110.95215
Sn  5.96915  0.00057 111.77533
Sn  8.95498  2.98500 113.37988
Sn  5.96998  2.98523 112.58137
Sn  8.95500 -0.00000 114.15724
Sn  5.97000 -0.00000 114.96981
Sn  8.95417  2.98503 116.61595
Sn  5.96578  2.98477 115.79831
Sn  8.95500  0.00001 117.37955
Sn  5.96999  0.00000 118.20250
Sn  8.95503  2.98511 119.80263
Sn  5.96996  2.98500 118.99301
Sn  8.95376  0.00066 120.62344
Sn  5.96894 -0.00001 121.42642
Sn  8.95501  2.98502 123.05726
Sn  5.96999  2.98498 122.24775
Sn  8.95288  0.00005 123.83585
Sn  5.96984  0.00000 124.67093
Sn  8.95576  2.98565 126.24895
Sn  5.97016  2.98497 125.43424
Sn  8.95483  0.00005 127.08033
Sn  5.96974  0.00005 127.89438
Sn  8.95498  2.98506 129.46039
Sn  5.97000  2.98501 128.67055
Sn  8.95417  0.00012 130.27495
Sn  5.96919  0.00037 131.09843
Sn  8.95500  2.98499 132.69179
Sn  5.97001  2.98506 131.86929
Sn  8.95499 -0.00001 133.52447
Sn  5.96999  0.00001 134.36202
Sn  8.95498  2.98516 135.90148
Sn  5.96995  2.98498 135.11733
Sn  8.95361  0.00057 136.70252
Sn  5.96947 -0.00013 137.56111
Sn  8.95453  2.98500 139.10595
Sn  5.96641  2.98506 138.30754
Sn  8.95500 -0.00000 139.86581
Sn  5.96999 -0.00001 140.90220
Sn  8.95436  2.98518 142.34970
Sn  5.96986  2.98497 141.63033
Sn  8.95497  0.00003 143.01917
Sn  5.97010 -0.00311 144.18600
Sn  8.95496  2.98489 145.43232
Sn  5.96999  2.98276 144.74838
Sn  8.95575 -0.00033 146.00256
Sn  5.96847  5.97032 -65.31722
Sn  8.95501  8.95500 -64.06605
Sn  5.97004  8.95507 -64.74923
Sn  8.95502  5.97001 -63.48963
Sn  5.96999  5.97003 -62.33555
Sn  8.95489  8.95499 -60.94651
Sn  5.96952  8.95531 -61.67139
Sn  8.95502  5.97000 -60.21841
Sn  5.96999  5.96998 -59.18238
Sn  8.95500  8.95499 -57.60987
Sn  5.96996  8.95496 -58.43167
Sn  8.95463  5.97000 -56.86916
Sn  5.96858  5.96998 -56.01985
Sn  8.95500  8.95500 -54.43306
Sn  5.97001  8.95499 -55.21827
Sn  8.95498  5.97000 -53.67788
Sn  5.96998  5.97000 -52.84102
Sn  8.95501  8.95501 -51.18564
Sn  5.96999  8.95501 -52.00865
Sn  8.95401  5.97002 -50.41485
Sn  5.96915  5.97057 -49.59167
Sn  8.95498  8.95500 -47.98712
Sn  5.96998  8.95523 -48.78563
Sn  8.95500  5.97000 -47.20976
Sn  5.97000  5.97000 -46.39719
Sn  8.95417  8.95503 -44.75105
Sn  5.96578  8.95477 -45.56869
Sn  8.95500  5.97001 -43.98745
Sn  5.96999  5.97000 -43.16450
Sn  8.95503  8.95511 -41.56437
Sn  5.96996  8.95500 -42.37399
Sn  8.95376  5.97066 -40.74356
Sn  5.96894  5.96999 -39.94058
Sn  8.95501  8.95502 -38.30974
Sn  5.96999  8.95498 -39.11925
Sn  8.95288  5.97005 -37.53115
Sn  5.96984  5.97000 -36.69607
Sn  8.95576  8.95565 -35.11805
Sn  5.97016  8.95497 -35.93276
Sn  8.95483  5.97005 -34.28667
Sn  5.96974  5.97005 -33.47262
Sn  8.95498  8.95506 -31.90661
Sn  5.97000  8.95501 -32.69645
Sn  8.95417  5.97012 -31.09205
Sn  5.96919  5.97037 -30.26857
Sn  8.95500  8.95499 -28.67521
Sn  5.97001  8.95506 -29.49771
Sn  8.95499  5.96999 -27.84253
Sn  5.96999  5.97001 -27.00498
Sn  8.95498  8.95516 -25.46552
Sn  5.96995  8.95498 -26.24967
Sn  8.95361  5.97057 -24.66448
Sn  5.96947  5.96987 -23.80589
Sn  8.95453  8.95500 -22.26105
Sn  5.96641  8.95506 -23.05946
Sn  8.95500  5.97000 -21.50119
Sn  5.96999  5.96999 -20.46480
Sn  8.95436  8.95518 -19.01730
Sn  5.96986  8.95497 -19.73667
Sn  8.95497  5.97003 -18.34783
Sn  5.97010  5.96689 -17.18100
Sn  8.95496  8.95489 -15.93468
Sn  5.96999  8.95276 -16.61862
Sn  8.95575  5.96967 -15.36444
Sn  5.96847  5.97032 15.36628
Sn  8.95501  8.95500 16.61745
Sn  5.97004  8.95507 15.93427
Sn  8.95502  5.97001 17.19387
Sn  5.96999  5.97003 18.34795
Sn  8.95489  8.95499 19.73699
Sn  5.96952  8.95531 19.01211
Sn  8.95502  5.97000 20.46509
Sn  5.96999  5.96998 21.50112
Sn  8.95500  8.95499 23.07363
Sn  5.96996  8.95496 22.25183
Sn  8.95463  5.97000 23.81434
Sn  5.96858  5.96998 24.66365
Sn  8.95500  8.95500 26.25044
Sn  5.97001  8.95499 25.46523
Sn  8.95498  5.97000 27.00562
Sn  5.96998  5.97000 27.84248
Sn  8.95501  8.95501 29.49786
Sn  5.96999  8.95501 28.67485
Sn  8.95401  5.97002 30.26865
Sn  5.96915  5.97057 31.09183
Sn  8.95498  8.95500 32.69638
Sn  5.96998  8.95523 31.89787
Sn  8.95500  5.97000 33.47374
Sn  5.97000  5.97000 34.28631
Sn  8.95417  8.95503 35.93245
Sn  5.96578  8.95477 35.11481
Sn  8.95500  5.97001 36.69605
Sn  5.96999  5.97000 37.51900
Sn  8.95503  8.95511 39.11913
Sn  5.96996  8.95500 38.30951
Sn  8.95376  5.97066 39.93994
Sn  5.96894  5.96999 40.74292
Sn  8.95501  8.95502 42.37376
Sn  5.96999  8.95498 41.56425
Sn  8.95288  5.97005 43.15235
Sn  5.96984  5.97000 43.98743
Sn  8.95576  8.95565 45.56545
Sn  5.97016  8.95497 44.75074
Sn  8.95483  5.97005 46.39683
Sn  5.96974  5.97005 47.21088
Sn  8.95498  8.95506 48.77689
Sn  5.97000  8.95501 47.98705
Sn  8.95417  5.97012 49.59145
Sn  5.96919  5.97037 50.41493
Sn  8.95500  8.95499 52.00829
Sn  5.97001  8.95506 51.18579
Sn  8.95499  5.96999 52.84097
Sn  5.96999  5.97001 53.67852
Sn  8.95498  8.95516 55.21798
Sn  5.96995  8.95498 54.43383
Sn  8.95361  5.97057 56.01902
Sn  5.96947  5.96987 56.87761
Sn  8.95453  8.95500 58.42245
Sn  5.96641  8.95506 57.62404
Sn  8.95500  5.97000 59.18231
Sn  5.96999  5.96999 60.21870
Sn  8.95436  8.95518 61.66620
Sn  5.96986  8.95497 60.94683
Sn  8.95497  5.97003 62.33567
Sn  5.97010  5.96689 63.50250
Sn  8.95496  8.95489 64.74882
Sn  5.96999  8.95276 64.06488
Sn  8.95575  5.96967 65.31906
Sn  5.96847  5.97032 96.04978
Sn  8.95501  8.95500 97.30095
Sn  5.97004  8.95507 96.61777
Sn  8.95502  5.97001 97.87737
Sn  5.96999  5.97003 99.03145
Sn  8.95489  8.95499 100.42049
Sn  5.96952  8.95531 99.69561
Sn  8.95502  5.97000 101.14859
Sn  5.96999  5.96998 102.18462
Sn  8.95500  8.95499 103.75713
Sn  5.96996  8.95496 102.93533
Sn  8.95463  5.97000 104.49784
Sn  5.96858  5.96998 105.34715
Sn  8.95500  8.95500 106.93394
Sn  5.97001  8.95499 106.14873
Sn  8.95498  5.97000 107.68912
Sn  5.96998  5.97000 108.52598
Sn  8.95501  8.95501 110.18136
Sn  5.96999  8.95501 109.35835
Sn  8.95401  5.97002 110.95215
Sn  5.96915  5.97057 111.77533
Sn  8.95498  8.95500 113.37988
Sn  5.96998  8.95523 112.58137
Sn  8.95500  5.97000 114.15724
Sn  5.97000  5.97000 114.96981
Sn  8.95417  8.95503 116.61595
Sn  5.96578  8.95477 115.79831
Sn  8.95500  5.97001 117.37955
Sn  5.96999  5.97000 118.20250
Sn  8.95503  8.95511 119.80263
Sn  5.96996  8.95500 118.99301
Sn  8.95376  5.97066 120.62344
Sn  5.96894  5.96999 121.42642
Sn  8.95501  8.95502 123.05726
Sn  5.96999  8.95498 122.24775
Sn  8.95288  5.97005 123.83585
Sn  5.96984  5.97000 124.67093
Sn  8.95576  8.95565 126.24895
Sn  5.97016  8.95497 125.43424
Sn  8.95483  5.97005 127.08033
Sn  5.96974  5.97005 127.89438
Sn  8.95498  8.95506 129.46039
Sn  5.97000  8.95501 128.67055
Sn  8.95417  5.97012 130.27495
Sn  5.96919  5.97037 131.09843
Sn  8.95500  8.95499 132.69179
Sn  5.97001  8.95506 131.86929
Sn  8.95499  5.96999 133.52447
Sn  5.96999  5.97001 134.36202
Sn  8.95498  8.95516 135.90148
Sn  5.96995  8.95498 135.11733
Sn  8.95361  5.97057 136.70252
Sn  5.96947  5.96987 137.56111
Sn  8.95453  8.95500 139.10595
Sn  5.96641  8.95506 138.30754
Sn  8.95500  5.97000 139.86581
Sn  5.96999  5.96999 140.90220
Sn  8.95436  8.95518 142.34970
Sn  5.96986  8.95497 141.63033
Sn  8.95497  5.97003 143.01917
Sn  5.97010  5.96689 144.18600
Sn  8.95496  8.95489 145.43232
Sn  5.96999  8.95276 144.74838
Sn  8.95575  5.96967 146.00256
