64 

Sn   -0.00153   0.00032  15.36628  -0.000095190099546   0.000040030140132  -0.000046235824260
Sn    2.98501   2.98500  16.61745   0.000002864134325  -0.000000165795651  -0.000048495086588
Sn    0.00004   2.98507  15.93427   0.000001708357867  -0.000007190664301  -0.000097618268711
Sn    2.98502   0.00001  17.19387   0.000001259788852   0.000003896730061   0.000290091738634
Sn   -0.00001   0.00003  18.34795  -0.000009669701019   0.000006061468518   0.000048047222661
Sn    2.98489   2.98499  19.73699  -0.000005836373831  -0.000001670836582  -0.000004262526389
Sn   -0.00048   2.98531  19.01211  -0.000001637398437   0.000010206007067  -0.000261645977716
Sn    2.98502   0.00000  20.46509   0.000006050287537   0.000000761380783   0.000175148316467
Sn   -0.00001  -0.00002  21.50112   0.000004429650665  -0.000004773520030  -0.000138758036057
Sn    2.98500   2.98499  23.07363  -0.000002266945972  -0.000002328139802  -0.000003201548126
Sn   -0.00004   2.98496  22.25183  -0.000012260933086  -0.000012781339300   0.000035045254179
Sn    2.98463  -0.00000  23.81434  -0.000011689999922  -0.000000740015956  -0.000106760827214
Sn   -0.00142  -0.00002  24.66365   0.000023510216786  -0.000007113492087  -0.000086756320553
Sn    2.98500   2.98500  26.25044   0.000000405982394  -0.000000799990946  -0.000029780570313
Sn    0.00001   2.98499  25.46523   0.000001594919492  -0.000003064255845  -0.000007114300485
Sn    2.98498   0.00000  27.00562  -0.000002071148568   0.000000245352174   0.000030987815267
Sn   -0.00002  -0.00000  27.84248  -0.000001611057053  -0.000001176513321  -0.000036189477246
Sn    2.98501   2.98501  29.49786   0.000004501941243   0.000002095277636   0.000017781759533
Sn   -0.00001   2.98501  28.67485  -0.000002734358914   0.000001293725153   0.000063636242894
Sn    2.98401   0.00002  30.26865  -0.000058204283373   0.000001185848765   0.000073315377420
Sn   -0.00085   0.00057  31.09183  -0.000017943894044   0.000019878560465   0.000026300243804
Sn    2.98498   2.98500  32.69638  -0.000000208663216  -0.000001127741742   0.000008663928615
Sn   -0.00002   2.98523  31.89787   0.000001557119020   0.000016388965078  -0.000026369196946
Sn    2.98500  -0.00000  33.47374   0.000004799381048  -0.000001599304773   0.000094742123524
Sn   -0.00000  -0.00000  34.28631  -0.000001425354797   0.000009808076589  -0.000121162332898
Sn    2.98417   2.98503  35.93245   0.000005049996486   0.000012263514907  -0.000017733024309
Sn   -0.00422   2.98477  35.11481  -0.000010802314179  -0.000008649109423  -0.000007236268081
Sn    2.98500   0.00001  36.69605  -0.000000037728490   0.000008134156860  -0.000025592925144
Sn   -0.00001   0.00000  37.51900  -0.000000301177657   0.000000616729842  -0.000030312832713
Sn    2.98503   2.98511  39.11913  -0.000000908915473   0.000000817157744  -0.000161871481405
Sn   -0.00004   2.98500  38.30951   0.000000401735734   0.000000031091552   0.000012822477766
Sn    2.98376   0.00066  39.93994  -0.000011760959818   0.000000876293517   0.000061562471049
Sn   -0.00106  -0.00001  40.74292  -0.000011483198879  -0.000000518984517  -0.000069842022714
Sn    2.98501   2.98502  42.37376  -0.000000272132317   0.000002028925028  -0.000011406094123
Sn   -0.00001   2.98498  41.56425  -0.000000380883667  -0.000007911081202   0.000152416448141
Sn    2.98288   0.00005  43.15235  -0.000101622161012   0.000003127990893  -0.000064705567749
Sn   -0.00016   0.00000  43.98743  -0.000007482555886   0.000004328823351   0.000087967002181
Sn    2.98576   2.98565  45.56545   0.000009157541617   0.000008937930303   0.000061980525347
Sn    0.00016   2.98497  44.75074   0.000015877974912  -0.000011866839296  -0.000064170546105
Sn    2.98483   0.00005  46.39683  -0.000034632412496  -0.000020666868348   0.000102464593598
Sn   -0.00026   0.00005  47.21088  -0.000045831717732   0.000004972531355   0.000055795117666
Sn    2.98498   2.98506  48.77689  -0.000003948351752   0.000000568990450   0.000070064547503
Sn   -0.00000   2.98501  47.98705  -0.000001698682925   0.000000242731794  -0.000010209268481
Sn    2.98417   0.00012  49.59145  -0.000023495327180   0.000006587342687   0.000005264265060
Sn   -0.00081   0.00037  50.41493  -0.000020493725879   0.000011719687257  -0.000117268711450
Sn    2.98500   2.98499  52.00829  -0.000000124663483  -0.000003333221785  -0.000059869814788
Sn    0.00001   2.98506  51.18579   0.000004472660171  -0.000001706964332  -0.000014746117118
Sn    2.98499  -0.00001  52.84097  -0.000000947849783  -0.000003052452616   0.000006342519130
Sn   -0.00001   0.00001  53.67852   0.000001454479060   0.000002677132204  -0.000033670498144
Sn    2.98498   2.98516  55.21798   0.000000725050299   0.000021039003200   0.000007770039359
Sn   -0.00005   2.98498  54.43383  -0.000000040623790  -0.000003811039248   0.000033353119435
Sn    2.98361   0.00057  56.01902  -0.000012725867419   0.000118206198862   0.000055799906453
Sn   -0.00053  -0.00013  56.87761   0.000026016241810  -0.000008150565006   0.000120789206445
Sn    2.98453   2.98500  58.42245   0.000057679252676   0.000001718515878  -0.000076338246867
Sn   -0.00359   2.98506  57.62404  -0.000214373844479   0.000021455949338  -0.000116197160561
Sn    2.98500  -0.00000  59.18231   0.000002721812474  -0.000000674161538   0.000148728469385
Sn   -0.00001  -0.00001  60.21870   0.000001163343129  -0.000000746553346  -0.000145643070786
Sn    2.98436   2.98518  61.66620  -0.000055330710705   0.000013851563623   0.000265591649503
Sn   -0.00014   2.98497  60.94683   0.000002903246959  -0.000003235163540   0.000006983049326
Sn    2.98497   0.00003  62.33567  -0.000024527050803   0.000012594983992  -0.000070814800864
Sn    0.00010  -0.00311  63.50250   0.000013303200976  -0.000089842195306  -0.000286531293717
Sn    2.98496   2.98489  64.74882  -0.000003327635971  -0.000014790067420   0.000100314075002
Sn   -0.00001   2.98276  64.06488  -0.000001497241000  -0.000020130252462   0.000024408368423
Sn    2.98575  -0.00033  65.31906   0.000010695077231  -0.000044690884955   0.000097435921468
