1296

Sn -5.01786 -5.94319 -52.46840
Sn -2.98966 -3.06927 -51.14272
Sn -5.98536 -2.95691 -51.98631
Sn -2.76698 -6.05279 -50.43294
Sn -5.84001 -5.93831 -49.54199
Sn -3.09561 -2.96416 -47.99395
Sn -6.08654 -2.95376 -48.88075
Sn -3.23527 -5.94898 -47.25389
Sn -6.21559 -5.94384 -46.32269
Sn -2.98924 -2.96128 -44.69466
Sn -5.96828 -2.95824 -45.61879
Sn -3.10470 -5.94645 -43.98540
Sn -6.08030 -5.94238 -43.15669
Sn -2.99161 -2.96060 -41.52481
Sn -5.97629 -2.95763 -42.35454
Sn -2.99450 -5.94425 -40.78218
Sn -5.97294 -5.94273 -39.96131
Sn -2.98931 -2.95774 -38.31618
Sn -5.97300 -2.95760 -39.13825
Sn -2.98828 -5.94326 -37.52758
Sn -5.97279 -5.94253 -36.70538
Sn -2.98608 -2.95753 -35.12446
Sn -5.97250 -2.95774 -35.93697
Sn -2.98873 -5.94186 -34.31391
Sn -5.97327 -5.94260 -33.50258
Sn -2.98831 -2.95761 -31.87841
Sn -5.97497 -2.95734 -32.69975
Sn -2.98853 -5.94254 -31.10980
Sn -5.97355 -5.94241 -30.29635
Sn -2.98884 -2.95739 -28.68458
Sn -5.97222 -2.95713 -29.50859
Sn -2.98844 -5.94238 -27.86263
Sn -5.97131 -5.94252 -27.05000
Sn -2.98556 -2.95715 -25.47056
Sn -5.97098 -2.95736 -26.29546
Sn -2.97866 -5.93839 -24.66948
Sn -5.96160 -5.94261 -23.85550
Sn -2.99446 -2.95639 -22.21502
Sn -5.97134 -2.95749 -23.12439
Sn -2.87281 -5.94194 -21.50136
Sn -5.84546 -5.94255 -20.62073
Sn -2.98800 -2.95748 -18.96113
Sn -5.97195 -2.95763 -19.83242
Sn -3.12629 -5.94262 -18.28721
Sn -6.19035 -5.94208 -17.45341
Sn -2.98808 -2.96211 -15.84849
Sn -5.97978 -2.95650 -16.68314
Sn -3.95863 -5.94282 -15.36757
Sn -5.01786 -5.94319 15.34310
Sn -2.98966 -3.06927 16.66878
Sn -5.98536 -2.95691 15.82519
Sn -2.76698 -6.05279 17.37856
Sn -5.84001 -5.93831 18.26951
Sn -3.09561 -2.96416 19.81755
Sn -6.08654 -2.95376 18.93075
Sn -3.23527 -5.94898 20.55761
Sn -6.21559 -5.94384 21.48881
Sn -2.98924 -2.96128 23.11684
Sn -5.96828 -2.95824 22.19271
Sn -3.10470 -5.94645 23.82610
Sn -6.08030 -5.94238 24.65481
Sn -2.99161 -2.96060 26.28669
Sn -5.97629 -2.95763 25.45696
Sn -2.99450 -5.94425 27.02932
Sn -5.97294 -5.94273 27.85019
Sn -2.98931 -2.95774 29.49532
Sn -5.97300 -2.95760 28.67325
Sn -2.98828 -5.94326 30.28392
Sn -5.97279 -5.94253 31.10612
Sn -2.98608 -2.95753 32.68704
Sn -5.97250 -2.95774 31.87453
Sn -2.98873 -5.94186 33.49759
Sn -5.97327 -5.94260 34.30892
Sn -2.98831 -2.95761 35.93309
Sn -5.97497 -2.95734 35.11175
Sn -2.98853 -5.94254 36.70170
Sn -5.97355 -5.94241 37.51515
Sn -2.98884 -2.95739 39.12692
Sn -5.97222 -2.95713 38.30291
Sn -2.98844 -5.94238 39.94887
Sn -5.97131 -5.94252 40.76150
Sn -2.98556 -2.95715 42.34094
Sn -5.97098 -2.95736 41.51604
Sn -2.97866 -5.93839 43.14202
Sn -5.96160 -5.94261 43.95600
Sn -2.99446 -2.95639 45.59648
Sn -5.97134 -2.95749 44.68711
Sn -2.87281 -5.94194 46.31014
Sn -5.84546 -5.94255 47.19077
Sn -2.98800 -2.95748 48.85037
Sn -5.97195 -2.95763 47.97908
Sn -3.12629 -5.94262 49.52429
Sn -6.19035 -5.94208 50.35809
Sn -2.98808 -2.96211 51.96301
Sn -5.97978 -2.95650 51.12836
Sn -3.95863 -5.94282 52.44393
Sn -5.01786 -5.94319 83.15460
Sn -2.98966 -3.06927 84.48028
Sn -5.98536 -2.95691 83.63669
Sn -2.76698 -6.05279 85.19006
Sn -5.84001 -5.93831 86.08101
Sn -3.09561 -2.96416 87.62905
Sn -6.08654 -2.95376 86.74225
Sn -3.23527 -5.94898 88.36911
Sn -6.21559 -5.94384 89.30031
Sn -2.98924 -2.96128 90.92834
Sn -5.96828 -2.95824 90.00421
Sn -3.10470 -5.94645 91.63760
Sn -6.08030 -5.94238 92.46631
Sn -2.99161 -2.96060 94.09819
Sn -5.97629 -2.95763 93.26846
Sn -2.99450 -5.94425 94.84082
Sn -5.97294 -5.94273 95.66169
Sn -2.98931 -2.95774 97.30682
Sn -5.97300 -2.95760 96.48475
Sn -2.98828 -5.94326 98.09542
Sn -5.97279 -5.94253 98.91762
Sn -2.98608 -2.95753 100.49854
Sn -5.97250 -2.95774 99.68603
Sn -2.98873 -5.94186 101.30909
Sn -5.97327 -5.94260 102.12042
Sn -2.98831 -2.95761 103.74459
Sn -5.97497 -2.95734 102.92325
Sn -2.98853 -5.94254 104.51320
Sn -5.97355 -5.94241 105.32665
Sn -2.98884 -2.95739 106.93842
Sn -5.97222 -2.95713 106.11441
Sn -2.98844 -5.94238 107.76037
Sn -5.97131 -5.94252 108.57300
Sn -2.98556 -2.95715 110.15244
Sn -5.97098 -2.95736 109.32754
Sn -2.97866 -5.93839 110.95352
Sn -5.96160 -5.94261 111.76750
Sn -2.99446 -2.95639 113.40798
Sn -5.97134 -2.95749 112.49861
Sn -2.87281 -5.94194 114.12164
Sn -5.84546 -5.94255 115.00227
Sn -2.98800 -2.95748 116.66187
Sn -5.97195 -2.95763 115.79058
Sn -3.12629 -5.94262 117.33579
Sn -6.19035 -5.94208 118.16959
Sn -2.98808 -2.96211 119.77451
Sn -5.97978 -2.95650 118.93986
Sn -3.95863 -5.94282 120.25543
Sn -5.01786  0.02681 -52.46840
Sn -2.98966  2.90073 -51.14272
Sn -5.98536  3.01309 -51.98631
Sn -2.76698 -0.08279 -50.43294
Sn -5.84001  0.03169 -49.54199
Sn -3.09561  3.00584 -47.99395
Sn -6.08654  3.01624 -48.88075
Sn -3.23527  0.02102 -47.25389
Sn -6.21559  0.02616 -46.32269
Sn -2.98924  3.00872 -44.69466
Sn -5.96828  3.01176 -45.61879
Sn -3.10470  0.02355 -43.98540
Sn -6.08030  0.02762 -43.15669
Sn -2.99161  3.00940 -41.52481
Sn -5.97629  3.01237 -42.35454
Sn -2.99450  0.02575 -40.78218
Sn -5.97294  0.02727 -39.96131
Sn -2.98931  3.01226 -38.31618
Sn -5.97300  3.01240 -39.13825
Sn -2.98828  0.02674 -37.52758
Sn -5.97279  0.02747 -36.70538
Sn -2.98608  3.01247 -35.12446
Sn -5.97250  3.01226 -35.93697
Sn -2.98873  0.02814 -34.31391
Sn -5.97327  0.02740 -33.50258
Sn -2.98831  3.01239 -31.87841
Sn -5.97497  3.01266 -32.69975
Sn -2.98853  0.02746 -31.10980
Sn -5.97355  0.02759 -30.29635
Sn -2.98884  3.01261 -28.68458
Sn -5.97222  3.01287 -29.50859
Sn -2.98844  0.02762 -27.86263
Sn -5.97131  0.02748 -27.05000
Sn -2.98556  3.01285 -25.47056
Sn -5.97098  3.01264 -26.29546
Sn -2.97866  0.03161 -24.66948
Sn -5.96160  0.02739 -23.85550
Sn -2.99446  3.01361 -22.21502
Sn -5.97134  3.01251 -23.12439
Sn -2.87281  0.02806 -21.50136
Sn -5.84546  0.02745 -20.62073
Sn -2.98800  3.01252 -18.96113
Sn -5.97195  3.01237 -19.83242
Sn -3.12629  0.02738 -18.28721
Sn -6.19035  0.02792 -17.45341
Sn -2.98808  3.00789 -15.84849
Sn -5.97978  3.01350 -16.68314
Sn -3.95863  0.02718 -15.36757
Sn -5.01786  0.02681 15.34310
Sn -2.98966  2.90073 16.66878
Sn -5.98536  3.01309 15.82519
Sn -2.76698 -0.08279 17.37856
Sn -5.84001  0.03169 18.26951
Sn -3.09561  3.00584 19.81755
Sn -6.08654  3.01624 18.93075
Sn -3.23527  0.02102 20.55761
Sn -6.21559  0.02616 21.48881
Sn -2.98924  3.00872 23.11684
Sn -5.96828  3.01176 22.19271
Sn -3.10470  0.02355 23.82610
Sn -6.08030  0.02762 24.65481
Sn -2.99161  3.00940 26.28669
Sn -5.97629  3.01237 25.45696
Sn -2.99450  0.02575 27.02932
Sn -5.97294  0.02727 27.85019
Sn -2.98931  3.01226 29.49532
Sn -5.97300  3.01240 28.67325
Sn -2.98828  0.02674 30.28392
Sn -5.97279  0.02747 31.10612
Sn -2.98608  3.01247 32.68704
Sn -5.97250  3.01226 31.87453
Sn -2.98873  0.02814 33.49759
Sn -5.97327  0.02740 34.30892
Sn -2.98831  3.01239 35.93309
Sn -5.97497  3.01266 35.11175
Sn -2.98853  0.02746 36.70170
Sn -5.97355  0.02759 37.51515
Sn -2.98884  3.01261 39.12692
Sn -5.97222  3.01287 38.30291
Sn -2.98844  0.02762 39.94887
Sn -5.97131  0.02748 40.76150
Sn -2.98556  3.01285 42.34094
Sn -5.97098  3.01264 41.51604
Sn -2.97866  0.03161 43.14202
Sn -5.96160  0.02739 43.95600
Sn -2.99446  3.01361 45.59648
Sn -5.97134  3.01251 44.68711
Sn -2.87281  0.02806 46.31014
Sn -5.84546  0.02745 47.19077
Sn -2.98800  3.01252 48.85037
Sn -5.97195  3.01237 47.97908
Sn -3.12629  0.02738 49.52429
Sn -6.19035  0.02792 50.35809
Sn -2.98808  3.00789 51.96301
Sn -5.97978  3.01350 51.12836
Sn -3.95863  0.02718 52.44393
Sn -5.01786  0.02681 83.15460
Sn -2.98966  2.90073 84.48028
Sn -5.98536  3.01309 83.63669
Sn -2.76698 -0.08279 85.19006
Sn -5.84001  0.03169 86.08101
Sn -3.09561  3.00584 87.62905
Sn -6.08654  3.01624 86.74225
Sn -3.23527  0.02102 88.36911
Sn -6.21559  0.02616 89.30031
Sn -2.98924  3.00872 90.92834
Sn -5.96828  3.01176 90.00421
Sn -3.10470  0.02355 91.63760
Sn -6.08030  0.02762 92.46631
Sn -2.99161  3.00940 94.09819
Sn -5.97629  3.01237 93.26846
Sn -2.99450  0.02575 94.84082
Sn -5.97294  0.02727 95.66169
Sn -2.98931  3.01226 97.30682
Sn -5.97300  3.01240 96.48475
Sn -2.98828  0.02674 98.09542
Sn -5.97279  0.02747 98.91762
Sn -2.98608  3.01247 100.49854
Sn -5.97250  3.01226 99.68603
Sn -2.98873  0.02814 101.30909
Sn -5.97327  0.02740 102.12042
Sn -2.98831  3.01239 103.74459
Sn -5.97497  3.01266 102.92325
Sn -2.98853  0.02746 104.51320
Sn -5.97355  0.02759 105.32665
Sn -2.98884  3.01261 106.93842
Sn -5.97222  3.01287 106.11441
Sn -2.98844  0.02762 107.76037
Sn -5.97131  0.02748 108.57300
Sn -2.98556  3.01285 110.15244
Sn -5.97098  3.01264 109.32754
Sn -2.97866  0.03161 110.95352
Sn -5.96160  0.02739 111.76750
Sn -2.99446  3.01361 113.40798
Sn -5.97134  3.01251 112.49861
Sn -2.87281  0.02806 114.12164
Sn -5.84546  0.02745 115.00227
Sn -2.98800  3.01252 116.66187
Sn -5.97195  3.01237 115.79058
Sn -3.12629  0.02738 117.33579
Sn -6.19035  0.02792 118.16959
Sn -2.98808  3.00789 119.77451
Sn -5.97978  3.01350 118.93986
Sn -3.95863  0.02718 120.25543
Sn -5.01786  5.99681 -52.46840
Sn -2.98966  8.87073 -51.14272
Sn -5.98536  8.98309 -51.98631
Sn -2.76698  5.88721 -50.43294
Sn -5.84001  6.00169 -49.54199
Sn -3.09561  8.97584 -47.99395
Sn -6.08654  8.98624 -48.88075
Sn -3.23527  5.99102 -47.25389
Sn -6.21559  5.99616 -46.32269
Sn -2.98924  8.97872 -44.69466
Sn -5.96828  8.98176 -45.61879
Sn -3.10470  5.99355 -43.98540
Sn -6.08030  5.99762 -43.15669
Sn -2.99161  8.97940 -41.52481
Sn -5.97629  8.98237 -42.35454
Sn -2.99450  5.99575 -40.78218
Sn -5.97294  5.99727 -39.96131
Sn -2.98931  8.98226 -38.31618
Sn -5.97300  8.98240 -39.13825
Sn -2.98828  5.99674 -37.52758
Sn -5.97279  5.99747 -36.70538
Sn -2.98608  8.98247 -35.12446
Sn -5.97250  8.98226 -35.93697
Sn -2.98873  5.99814 -34.31391
Sn -5.97327  5.99740 -33.50258
Sn -2.98831  8.98239 -31.87841
Sn -5.97497  8.98266 -32.69975
Sn -2.98853  5.99746 -31.10980
Sn -5.97355  5.99759 -30.29635
Sn -2.98884  8.98261 -28.68458
Sn -5.97222  8.98287 -29.50859
Sn -2.98844  5.99762 -27.86263
Sn -5.97131  5.99748 -27.05000
Sn -2.98556  8.98285 -25.47056
Sn -5.97098  8.98264 -26.29546
Sn -2.97866  6.00161 -24.66948
Sn -5.96160  5.99739 -23.85550
Sn -2.99446  8.98361 -22.21502
Sn -5.97134  8.98251 -23.12439
Sn -2.87281  5.99806 -21.50136
Sn -5.84546  5.99745 -20.62073
Sn -2.98800  8.98252 -18.96113
Sn -5.97195  8.98237 -19.83242
Sn -3.12629  5.99738 -18.28721
Sn -6.19035  5.99792 -17.45341
Sn -2.98808  8.97789 -15.84849
Sn -5.97978  8.98350 -16.68314
Sn -3.95863  5.99718 -15.36757
Sn -5.01786  5.99681 15.34310
Sn -2.98966  8.87073 16.66878
Sn -5.98536  8.98309 15.82519
Sn -2.76698  5.88721 17.37856
Sn -5.84001  6.00169 18.26951
Sn -3.09561  8.97584 19.81755
Sn -6.08654  8.98624 18.93075
Sn -3.23527  5.99102 20.55761
Sn -6.21559  5.99616 21.48881
Sn -2.98924  8.97872 23.11684
Sn -5.96828  8.98176 22.19271
Sn -3.10470  5.99355 23.82610
Sn -6.08030  5.99762 24.65481
Sn -2.99161  8.97940 26.28669
Sn -5.97629  8.98237 25.45696
Sn -2.99450  5.99575 27.02932
Sn -5.97294  5.99727 27.85019
Sn -2.98931  8.98226 29.49532
Sn -5.97300  8.98240 28.67325
Sn -2.98828  5.99674 30.28392
Sn -5.97279  5.99747 31.10612
Sn -2.98608  8.98247 32.68704
Sn -5.97250  8.98226 31.87453
Sn -2.98873  5.99814 33.49759
Sn -5.97327  5.99740 34.30892
Sn -2.98831  8.98239 35.93309
Sn -5.97497  8.98266 35.11175
Sn -2.98853  5.99746 36.70170
Sn -5.97355  5.99759 37.51515
Sn -2.98884  8.98261 39.12692
Sn -5.97222  8.98287 38.30291
Sn -2.98844  5.99762 39.94887
Sn -5.97131  5.99748 40.76150
Sn -2.98556  8.98285 42.34094
Sn -5.97098  8.98264 41.51604
Sn -2.97866  6.00161 43.14202
Sn -5.96160  5.99739 43.95600
Sn -2.99446  8.98361 45.59648
Sn -5.97134  8.98251 44.68711
Sn -2.87281  5.99806 46.31014
Sn -5.84546  5.99745 47.19077
Sn -2.98800  8.98252 48.85037
Sn -5.97195  8.98237 47.97908
Sn -3.12629  5.99738 49.52429
Sn -6.19035  5.99792 50.35809
Sn -2.98808  8.97789 51.96301
Sn -5.97978  8.98350 51.12836
Sn -3.95863  5.99718 52.44393
Sn -5.01786  5.99681 83.15460
Sn -2.98966  8.87073 84.48028
Sn -5.98536  8.98309 83.63669
Sn -2.76698  5.88721 85.19006
Sn -5.84001  6.00169 86.08101
Sn -3.09561  8.97584 87.62905
Sn -6.08654  8.98624 86.74225
Sn -3.23527  5.99102 88.36911
Sn -6.21559  5.99616 89.30031
Sn -2.98924  8.97872 90.92834
Sn -5.96828  8.98176 90.00421
Sn -3.10470  5.99355 91.63760
Sn -6.08030  5.99762 92.46631
Sn -2.99161  8.97940 94.09819
Sn -5.97629  8.98237 93.26846
Sn -2.99450  5.99575 94.84082
Sn -5.97294  5.99727 95.66169
Sn -2.98931  8.98226 97.30682
Sn -5.97300  8.98240 96.48475
Sn -2.98828  5.99674 98.09542
Sn -5.97279  5.99747 98.91762
Sn -2.98608  8.98247 100.49854
Sn -5.97250  8.98226 99.68603
Sn -2.98873  5.99814 101.30909
Sn -5.97327  5.99740 102.12042
Sn -2.98831  8.98239 103.74459
Sn -5.97497  8.98266 102.92325
Sn -2.98853  5.99746 104.51320
Sn -5.97355  5.99759 105.32665
Sn -2.98884  8.98261 106.93842
Sn -5.97222  8.98287 106.11441
Sn -2.98844  5.99762 107.76037
Sn -5.97131  5.99748 108.57300
Sn -2.98556  8.98285 110.15244
Sn -5.97098  8.98264 109.32754
Sn -2.97866  6.00161 110.95352
Sn -5.96160  5.99739 111.76750
Sn -2.99446  8.98361 113.40798
Sn -5.97134  8.98251 112.49861
Sn -2.87281  5.99806 114.12164
Sn -5.84546  5.99745 115.00227
Sn -2.98800  8.98252 116.66187
Sn -5.97195  8.98237 115.79058
Sn -3.12629  5.99738 117.33579
Sn -6.19035  5.99792 118.16959
Sn -2.98808  8.97789 119.77451
Sn -5.97978  8.98350 118.93986
Sn -3.95863  5.99718 120.25543
Sn  0.95214 -5.94319 -52.46840
Sn  2.98034 -3.06927 -51.14272
Sn -0.01536 -2.95691 -51.98631
Sn  3.20302 -6.05279 -50.43294
Sn  0.12999 -5.93831 -49.54199
Sn  2.87439 -2.96416 -47.99395
Sn -0.11654 -2.95376 -48.88075
Sn  2.73473 -5.94898 -47.25389
Sn -0.24559 -5.94384 -46.32269
Sn  2.98076 -2.96128 -44.69466
Sn  0.00172 -2.95824 -45.61879
Sn  2.86530 -5.94645 -43.98540
Sn -0.11030 -5.94238 -43.15669
Sn  2.97839 -2.96060 -41.52481
Sn -0.00629 -2.95763 -42.35454
Sn  2.97550 -5.94425 -40.78218
Sn -0.00294 -5.94273 -39.96131
Sn  2.98069 -2.95774 -38.31618
Sn -0.00300 -2.95760 -39.13825
Sn  2.98172 -5.94326 -37.52758
Sn -0.00279 -5.94253 -36.70538
Sn  2.98392 -2.95753 -35.12446
Sn -0.00250 -2.95774 -35.93697
Sn  2.98127 -5.94186 -34.31391
Sn -0.00327 -5.94260 -33.50258
Sn  2.98169 -2.95761 -31.87841
Sn -0.00497 -2.95734 -32.69975
Sn  2.98147 -5.94254 -31.10980
Sn -0.00355 -5.94241 -30.29635
Sn  2.98116 -2.95739 -28.68458
Sn -0.00222 -2.95713 -29.50859
Sn  2.98156 -5.94238 -27.86263
Sn -0.00131 -5.94252 -27.05000
Sn  2.98444 -2.95715 -25.47056
Sn -0.00098 -2.95736 -26.29546
Sn  2.99134 -5.93839 -24.66948
Sn  0.00840 -5.94261 -23.85550
Sn  2.97554 -2.95639 -22.21502
Sn -0.00134 -2.95749 -23.12439
Sn  3.09719 -5.94194 -21.50136
Sn  0.12454 -5.94255 -20.62073
Sn  2.98200 -2.95748 -18.96113
Sn -0.00195 -2.95763 -19.83242
Sn  2.84371 -5.94262 -18.28721
Sn -0.22035 -5.94208 -17.45341
Sn  2.98192 -2.96211 -15.84849
Sn -0.00978 -2.95650 -16.68314
Sn  2.01137 -5.94282 -15.36757
Sn  0.95214 -5.94319 15.34310
Sn  2.98034 -3.06927 16.66878
Sn -0.01536 -2.95691 15.82519
Sn  3.20302 -6.05279 17.37856
Sn  0.12999 -5.93831 18.26951
Sn  2.87439 -2.96416 19.81755
Sn -0.11654 -2.95376 18.93075
Sn  2.73473 -5.94898 20.55761
Sn -0.24559 -5.94384 21.48881
Sn  2.98076 -2.96128 23.11684
Sn  0.00172 -2.95824 22.19271
Sn  2.86530 -5.94645 23.82610
Sn -0.11030 -5.94238 24.65481
Sn  2.97839 -2.96060 26.28669
Sn -0.00629 -2.95763 25.45696
Sn  2.97550 -5.94425 27.02932
Sn -0.00294 -5.94273 27.85019
Sn  2.98069 -2.95774 29.49532
Sn -0.00300 -2.95760 28.67325
Sn  2.98172 -5.94326 30.28392
Sn -0.00279 -5.94253 31.10612
Sn  2.98392 -2.95753 32.68704
Sn -0.00250 -2.95774 31.87453
Sn  2.98127 -5.94186 33.49759
Sn -0.00327 -5.94260 34.30892
Sn  2.98169 -2.95761 35.93309
Sn -0.00497 -2.95734 35.11175
Sn  2.98147 -5.94254 36.70170
Sn -0.00355 -5.94241 37.51515
Sn  2.98116 -2.95739 39.12692
Sn -0.00222 -2.95713 38.30291
Sn  2.98156 -5.94238 39.94887
Sn -0.00131 -5.94252 40.76150
Sn  2.98444 -2.95715 42.34094
Sn -0.00098 -2.95736 41.51604
Sn  2.99134 -5.93839 43.14202
Sn  0.00840 -5.94261 43.95600
Sn  2.97554 -2.95639 45.59648
Sn -0.00134 -2.95749 44.68711
Sn  3.09719 -5.94194 46.31014
Sn  0.12454 -5.94255 47.19077
Sn  2.98200 -2.95748 48.85037
Sn -0.00195 -2.95763 47.97908
Sn  2.84371 -5.94262 49.52429
Sn -0.22035 -5.94208 50.35809
Sn  2.98192 -2.96211 51.96301
Sn -0.00978 -2.95650 51.12836
Sn  2.01137 -5.94282 52.44393
Sn  0.95214 -5.94319 83.15460
Sn  2.98034 -3.06927 84.48028
Sn -0.01536 -2.95691 83.63669
Sn  3.20302 -6.05279 85.19006
Sn  0.12999 -5.93831 86.08101
Sn  2.87439 -2.96416 87.62905
Sn -0.11654 -2.95376 86.74225
Sn  2.73473 -5.94898 88.36911
Sn -0.24559 -5.94384 89.30031
Sn  2.98076 -2.96128 90.92834
Sn  0.00172 -2.95824 90.00421
Sn  2.86530 -5.94645 91.63760
Sn -0.11030 -5.94238 92.46631
Sn  2.97839 -2.96060 94.09819
Sn -0.00629 -2.95763 93.26846
Sn  2.97550 -5.94425 94.84082
Sn -0.00294 -5.94273 95.66169
Sn  2.98069 -2.95774 97.30682
Sn -0.00300 -2.95760 96.48475
Sn  2.98172 -5.94326 98.09542
Sn -0.00279 -5.94253 98.91762
Sn  2.98392 -2.95753 100.49854
Sn -0.00250 -2.95774 99.68603
Sn  2.98127 -5.94186 101.30909
Sn -0.00327 -5.94260 102.12042
Sn  2.98169 -2.95761 103.74459
Sn -0.00497 -2.95734 102.92325
Sn  2.98147 -5.94254 104.51320
Sn -0.00355 -5.94241 105.32665
Sn  2.98116 -2.95739 106.93842
Sn -0.00222 -2.95713 106.11441
Sn  2.98156 -5.94238 107.76037
Sn -0.00131 -5.94252 108.57300
Sn  2.98444 -2.95715 110.15244
Sn -0.00098 -2.95736 109.32754
Sn  2.99134 -5.93839 110.95352
Sn  0.00840 -5.94261 111.76750
Sn  2.97554 -2.95639 113.40798
Sn -0.00134 -2.95749 112.49861
Sn  3.09719 -5.94194 114.12164
Sn  0.12454 -5.94255 115.00227
Sn  2.98200 -2.95748 116.66187
Sn -0.00195 -2.95763 115.79058
Sn  2.84371 -5.94262 117.33579
Sn -0.22035 -5.94208 118.16959
Sn  2.98192 -2.96211 119.77451
Sn -0.00978 -2.95650 118.93986
Sn  2.01137 -5.94282 120.25543
Sn  0.95214  0.02681 -52.46840
Sn  2.98034  2.90073 -51.14272
Sn -0.01536  3.01309 -51.98631
Sn  3.20302 -0.08279 -50.43294
Sn  0.12999  0.03169 -49.54199
Sn  2.87439  3.00584 -47.99395
Sn -0.11654  3.01624 -48.88075
Sn  2.73473  0.02102 -47.25389
Sn -0.24559  0.02616 -46.32269
Sn  2.98076  3.00872 -44.69466
Sn  0.00172  3.01176 -45.61879
Sn  2.86530  0.02355 -43.98540
Sn -0.11030  0.02762 -43.15669
Sn  2.97839  3.00940 -41.52481
Sn -0.00629  3.01237 -42.35454
Sn  2.97550  0.02575 -40.78218
Sn -0.00294  0.02727 -39.96131
Sn  2.98069  3.01226 -38.31618
Sn -0.00300  3.01240 -39.13825
Sn  2.98172  0.02674 -37.52758
Sn -0.00279  0.02747 -36.70538
Sn  2.98392  3.01247 -35.12446
Sn -0.00250  3.01226 -35.93697
Sn  2.98127  0.02814 -34.31391
Sn -0.00327  0.02740 -33.50258
Sn  2.98169  3.01239 -31.87841
Sn -0.00497  3.01266 -32.69975
Sn  2.98147  0.02746 -31.10980
Sn -0.00355  0.02759 -30.29635
Sn  2.98116  3.01261 -28.68458
Sn -0.00222  3.01287 -29.50859
Sn  2.98156  0.02762 -27.86263
Sn -0.00131  0.02748 -27.05000
Sn  2.98444  3.01285 -25.47056
Sn -0.00098  3.01264 -26.29546
Sn  2.99134  0.03161 -24.66948
Sn  0.00840  0.02739 -23.85550
Sn  2.97554  3.01361 -22.21502
Sn -0.00134  3.01251 -23.12439
Sn  3.09719  0.02806 -21.50136
Sn  0.12454  0.02745 -20.62073
Sn  2.98200  3.01252 -18.96113
Sn -0.00195  3.01237 -19.83242
Sn  2.84371  0.02738 -18.28721
Sn -0.22035  0.02792 -17.45341
Sn  2.98192  3.00789 -15.84849
Sn -0.00978  3.01350 -16.68314
Sn  2.01137  0.02718 -15.36757
Sn  0.95214  0.02681 15.34310
Sn  2.98034  2.90073 16.66878
Sn -0.01536  3.01309 15.82519
Sn  3.20302 -0.08279 17.37856
Sn  0.12999  0.03169 18.26951
Sn  2.87439  3.00584 19.81755
Sn -0.11654  3.01624 18.93075
Sn  2.73473  0.02102 20.55761
Sn -0.24559  0.02616 21.48881
Sn  2.98076  3.00872 23.11684
Sn  0.00172  3.01176 22.19271
Sn  2.86530  0.02355 23.82610
Sn -0.11030  0.02762 24.65481
Sn  2.97839  3.00940 26.28669
Sn -0.00629  3.01237 25.45696
Sn  2.97550  0.02575 27.02932
Sn -0.00294  0.02727 27.85019
Sn  2.98069  3.01226 29.49532
Sn -0.00300  3.01240 28.67325
Sn  2.98172  0.02674 30.28392
Sn -0.00279  0.02747 31.10612
Sn  2.98392  3.01247 32.68704
Sn -0.00250  3.01226 31.87453
Sn  2.98127  0.02814 33.49759
Sn -0.00327  0.02740 34.30892
Sn  2.98169  3.01239 35.93309
Sn -0.00497  3.01266 35.11175
Sn  2.98147  0.02746 36.70170
Sn -0.00355  0.02759 37.51515
Sn  2.98116  3.01261 39.12692
Sn -0.00222  3.01287 38.30291
Sn  2.98156  0.02762 39.94887
Sn -0.00131  0.02748 40.76150
Sn  2.98444  3.01285 42.34094
Sn -0.00098  3.01264 41.51604
Sn  2.99134  0.03161 43.14202
Sn  0.00840  0.02739 43.95600
Sn  2.97554  3.01361 45.59648
Sn -0.00134  3.01251 44.68711
Sn  3.09719  0.02806 46.31014
Sn  0.12454  0.02745 47.19077
Sn  2.98200  3.01252 48.85037
Sn -0.00195  3.01237 47.97908
Sn  2.84371  0.02738 49.52429
Sn -0.22035  0.02792 50.35809
Sn  2.98192  3.00789 51.96301
Sn -0.00978  3.01350 51.12836
Sn  2.01137  0.02718 52.44393
Sn  0.95214  0.02681 83.15460
Sn  2.98034  2.90073 84.48028
Sn -0.01536  3.01309 83.63669
Sn  3.20302 -0.08279 85.19006
Sn  0.12999  0.03169 86.08101
Sn  2.87439  3.00584 87.62905
Sn -0.11654  3.01624 86.74225
Sn  2.73473  0.02102 88.36911
Sn -0.24559  0.02616 89.30031
Sn  2.98076  3.00872 90.92834
Sn  0.00172  3.01176 90.00421
Sn  2.86530  0.02355 91.63760
Sn -0.11030  0.02762 92.46631
Sn  2.97839  3.00940 94.09819
Sn -0.00629  3.01237 93.26846
Sn  2.97550  0.02575 94.84082
Sn -0.00294  0.02727 95.66169
Sn  2.98069  3.01226 97.30682
Sn -0.00300  3.01240 96.48475
Sn  2.98172  0.02674 98.09542
Sn -0.00279  0.02747 98.91762
Sn  2.98392  3.01247 100.49854
Sn -0.00250  3.01226 99.68603
Sn  2.98127  0.02814 101.30909
Sn -0.00327  0.02740 102.12042
Sn  2.98169  3.01239 103.74459
Sn -0.00497  3.01266 102.92325
Sn  2.98147  0.02746 104.51320
Sn -0.00355  0.02759 105.32665
Sn  2.98116  3.01261 106.93842
Sn -0.00222  3.01287 106.11441
Sn  2.98156  0.02762 107.76037
Sn -0.00131  0.02748 108.57300
Sn  2.98444  3.01285 110.15244
Sn -0.00098  3.01264 109.32754
Sn  2.99134  0.03161 110.95352
Sn  0.00840  0.02739 111.76750
Sn  2.97554  3.01361 113.40798
Sn -0.00134  3.01251 112.49861
Sn  3.09719  0.02806 114.12164
Sn  0.12454  0.02745 115.00227
Sn  2.98200  3.01252 116.66187
Sn -0.00195  3.01237 115.79058
Sn  2.84371  0.02738 117.33579
Sn -0.22035  0.02792 118.16959
Sn  2.98192  3.00789 119.77451
Sn -0.00978  3.01350 118.93986
Sn  2.01137  0.02718 120.25543
Sn  0.95214  5.99681 -52.46840
Sn  2.98034  8.87073 -51.14272
Sn -0.01536  8.98309 -51.98631
Sn  3.20302  5.88721 -50.43294
Sn  0.12999  6.00169 -49.54199
Sn  2.87439  8.97584 -47.99395
Sn -0.11654  8.98624 -48.88075
Sn  2.73473  5.99102 -47.25389
Sn -0.24559  5.99616 -46.32269
Sn  2.98076  8.97872 -44.69466
Sn  0.00172  8.98176 -45.61879
Sn  2.86530  5.99355 -43.98540
Sn -0.11030  5.99762 -43.15669
Sn  2.97839  8.97940 -41.52481
Sn -0.00629  8.98237 -42.35454
Sn  2.97550  5.99575 -40.78218
Sn -0.00294  5.99727 -39.96131
Sn  2.98069  8.98226 -38.31618
Sn -0.00300  8.98240 -39.13825
Sn  2.98172  5.99674 -37.52758
Sn -0.00279  5.99747 -36.70538
Sn  2.98392  8.98247 -35.12446
Sn -0.00250  8.98226 -35.93697
Sn  2.98127  5.99814 -34.31391
Sn -0.00327  5.99740 -33.50258
Sn  2.98169  8.98239 -31.87841
Sn -0.00497  8.98266 -32.69975
Sn  2.98147  5.99746 -31.10980
Sn -0.00355  5.99759 -30.29635
Sn  2.98116  8.98261 -28.68458
Sn -0.00222  8.98287 -29.50859
Sn  2.98156  5.99762 -27.86263
Sn -0.00131  5.99748 -27.05000
Sn  2.98444  8.98285 -25.47056
Sn -0.00098  8.98264 -26.29546
Sn  2.99134  6.00161 -24.66948
Sn  0.00840  5.99739 -23.85550
Sn  2.97554  8.98361 -22.21502
Sn -0.00134  8.98251 -23.12439
Sn  3.09719  5.99806 -21.50136
Sn  0.12454  5.99745 -20.62073
Sn  2.98200  8.98252 -18.96113
Sn -0.00195  8.98237 -19.83242
Sn  2.84371  5.99738 -18.28721
Sn -0.22035  5.99792 -17.45341
Sn  2.98192  8.97789 -15.84849
Sn -0.00978  8.98350 -16.68314
Sn  2.01137  5.99718 -15.36757
Sn  0.95214  5.99681 15.34310
Sn  2.98034  8.87073 16.66878
Sn -0.01536  8.98309 15.82519
Sn  3.20302  5.88721 17.37856
Sn  0.12999  6.00169 18.26951
Sn  2.87439  8.97584 19.81755
Sn -0.11654  8.98624 18.93075
Sn  2.73473  5.99102 20.55761
Sn -0.24559  5.99616 21.48881
Sn  2.98076  8.97872 23.11684
Sn  0.00172  8.98176 22.19271
Sn  2.86530  5.99355 23.82610
Sn -0.11030  5.99762 24.65481
Sn  2.97839  8.97940 26.28669
Sn -0.00629  8.98237 25.45696
Sn  2.97550  5.99575 27.02932
Sn -0.00294  5.99727 27.85019
Sn  2.98069  8.98226 29.49532
Sn -0.00300  8.98240 28.67325
Sn  2.98172  5.99674 30.28392
Sn -0.00279  5.99747 31.10612
Sn  2.98392  8.98247 32.68704
Sn -0.00250  8.98226 31.87453
Sn  2.98127  5.99814 33.49759
Sn -0.00327  5.99740 34.30892
Sn  2.98169  8.98239 35.93309
Sn -0.00497  8.98266 35.11175
Sn  2.98147  5.99746 36.70170
Sn -0.00355  5.99759 37.51515
Sn  2.98116  8.98261 39.12692
Sn -0.00222  8.98287 38.30291
Sn  2.98156  5.99762 39.94887
Sn -0.00131  5.99748 40.76150
Sn  2.98444  8.98285 42.34094
Sn -0.00098  8.98264 41.51604
Sn  2.99134  6.00161 43.14202
Sn  0.00840  5.99739 43.95600
Sn  2.97554  8.98361 45.59648
Sn -0.00134  8.98251 44.68711
Sn  3.09719  5.99806 46.31014
Sn  0.12454  5.99745 47.19077
Sn  2.98200  8.98252 48.85037
Sn -0.00195  8.98237 47.97908
Sn  2.84371  5.99738 49.52429
Sn -0.22035  5.99792 50.35809
Sn  2.98192  8.97789 51.96301
Sn -0.00978  8.98350 51.12836
Sn  2.01137  5.99718 52.44393
Sn  0.95214  5.99681 83.15460
Sn  2.98034  8.87073 84.48028
Sn -0.01536  8.98309 83.63669
Sn  3.20302  5.88721 85.19006
Sn  0.12999  6.00169 86.08101
Sn  2.87439  8.97584 87.62905
Sn -0.11654  8.98624 86.74225
Sn  2.73473  5.99102 88.36911
Sn -0.24559  5.99616 89.30031
Sn  2.98076  8.97872 90.92834
Sn  0.00172  8.98176 90.00421
Sn  2.86530  5.99355 91.63760
Sn -0.11030  5.99762 92.46631
Sn  2.97839  8.97940 94.09819
Sn -0.00629  8.98237 93.26846
Sn  2.97550  5.99575 94.84082
Sn -0.00294  5.99727 95.66169
Sn  2.98069  8.98226 97.30682
Sn -0.00300  8.98240 96.48475
Sn  2.98172  5.99674 98.09542
Sn -0.00279  5.99747 98.91762
Sn  2.98392  8.98247 100.49854
Sn -0.00250  8.98226 99.68603
Sn  2.98127  5.99814 101.30909
Sn -0.00327  5.99740 102.12042
Sn  2.98169  8.98239 103.74459
Sn -0.00497  8.98266 102.92325
Sn  2.98147  5.99746 104.51320
Sn -0.00355  5.99759 105.32665
Sn  2.98116  8.98261 106.93842
Sn -0.00222  8.98287 106.11441
Sn  2.98156  5.99762 107.76037
Sn -0.00131  5.99748 108.57300
Sn  2.98444  8.98285 110.15244
Sn -0.00098  8.98264 109.32754
Sn  2.99134  6.00161 110.95352
Sn  0.00840  5.99739 111.76750
Sn  2.97554  8.98361 113.40798
Sn -0.00134  8.98251 112.49861
Sn  3.09719  5.99806 114.12164
Sn  0.12454  5.99745 115.00227
Sn  2.98200  8.98252 116.66187
Sn -0.00195  8.98237 115.79058
Sn  2.84371  5.99738 117.33579
Sn -0.22035  5.99792 118.16959
Sn  2.98192  8.97789 119.77451
Sn -0.00978  8.98350 118.93986
Sn  2.01137  5.99718 120.25543
Sn  6.92214 -5.94319 -52.46840
Sn  8.95034 -3.06927 -51.14272
Sn  5.95464 -2.95691 -51.98631
Sn  9.17302 -6.05279 -50.43294
Sn  6.09999 -5.93831 -49.54199
Sn  8.84439 -2.96416 -47.99395
Sn  5.85346 -2.95376 -48.88075
Sn  8.70473 -5.94898 -47.25389
Sn  5.72441 -5.94384 -46.32269
Sn  8.95076 -2.96128 -44.69466
Sn  5.97172 -2.95824 -45.61879
Sn  8.83530 -5.94645 -43.98540
Sn  5.85970 -5.94238 -43.15669
Sn  8.94839 -2.96060 -41.52481
Sn  5.96371 -2.95763 -42.35454
Sn  8.94550 -5.94425 -40.78218
Sn  5.96706 -5.94273 -39.96131
Sn  8.95069 -2.95774 -38.31618
Sn  5.96700 -2.95760 -39.13825
Sn  8.95172 -5.94326 -37.52758
Sn  5.96721 -5.94253 -36.70538
Sn  8.95392 -2.95753 -35.12446
Sn  5.96750 -2.95774 -35.93697
Sn  8.95127 -5.94186 -34.31391
Sn  5.96673 -5.94260 -33.50258
Sn  8.95169 -2.95761 -31.87841
Sn  5.96503 -2.95734 -32.69975
Sn  8.95147 -5.94254 -31.10980
Sn  5.96645 -5.94241 -30.29635
Sn  8.95116 -2.95739 -28.68458
Sn  5.96778 -2.95713 -29.50859
Sn  8.95156 -5.94238 -27.86263
Sn  5.96869 -5.94252 -27.05000
Sn  8.95444 -2.95715 -25.47056
Sn  5.96902 -2.95736 -26.29546
Sn  8.96134 -5.93839 -24.66948
Sn  5.97840 -5.94261 -23.85550
Sn  8.94554 -2.95639 -22.21502
Sn  5.96866 -2.95749 -23.12439
Sn  9.06719 -5.94194 -21.50136
Sn  6.09454 -5.94255 -20.62073
Sn  8.95200 -2.95748 -18.96113
Sn  5.96805 -2.95763 -19.83242
Sn  8.81371 -5.94262 -18.28721
Sn  5.74965 -5.94208 -17.45341
Sn  8.95192 -2.96211 -15.84849
Sn  5.96022 -2.95650 -16.68314
Sn  7.98137 -5.94282 -15.36757
Sn  6.92214 -5.94319 15.34310
Sn  8.95034 -3.06927 16.66878
Sn  5.95464 -2.95691 15.82519
Sn  9.17302 -6.05279 17.37856
Sn  6.09999 -5.93831 18.26951
Sn  8.84439 -2.96416 19.81755
Sn  5.85346 -2.95376 18.93075
Sn  8.70473 -5.94898 20.55761
Sn  5.72441 -5.94384 21.48881
Sn  8.95076 -2.96128 23.11684
Sn  5.97172 -2.95824 22.19271
Sn  8.83530 -5.94645 23.82610
Sn  5.85970 -5.94238 24.65481
Sn  8.94839 -2.96060 26.28669
Sn  5.96371 -2.95763 25.45696
Sn  8.94550 -5.94425 27.02932
Sn  5.96706 -5.94273 27.85019
Sn  8.95069 -2.95774 29.49532
Sn  5.96700 -2.95760 28.67325
Sn  8.95172 -5.94326 30.28392
Sn  5.96721 -5.94253 31.10612
Sn  8.95392 -2.95753 32.68704
Sn  5.96750 -2.95774 31.87453
Sn  8.95127 -5.94186 33.49759
Sn  5.96673 -5.94260 34.30892
Sn  8.95169 -2.95761 35.93309
Sn  5.96503 -2.95734 35.11175
Sn  8.95147 -5.94254 36.70170
Sn  5.96645 -5.94241 37.51515
Sn  8.95116 -2.95739 39.12692
Sn  5.96778 -2.95713 38.30291
Sn  8.95156 -5.94238 39.94887
Sn  5.96869 -5.94252 40.76150
Sn  8.95444 -2.95715 42.34094
Sn  5.96902 -2.95736 41.51604
Sn  8.96134 -5.93839 43.14202
Sn  5.97840 -5.94261 43.95600
Sn  8.94554 -2.95639 45.59648
Sn  5.96866 -2.95749 44.68711
Sn  9.06719 -5.94194 46.31014
Sn  6.09454 -5.94255 47.19077
Sn  8.95200 -2.95748 48.85037
Sn  5.96805 -2.95763 47.97908
Sn  8.81371 -5.94262 49.52429
Sn  5.74965 -5.94208 50.35809
Sn  8.95192 -2.96211 51.96301
Sn  5.96022 -2.95650 51.12836
Sn  7.98137 -5.94282 52.44393
Sn  6.92214 -5.94319 83.15460
Sn  8.95034 -3.06927 84.48028
Sn  5.95464 -2.95691 83.63669
Sn  9.17302 -6.05279 85.19006
Sn  6.09999 -5.93831 86.08101
Sn  8.84439 -2.96416 87.62905
Sn  5.85346 -2.95376 86.74225
Sn  8.70473 -5.94898 88.36911
Sn  5.72441 -5.94384 89.30031
Sn  8.95076 -2.96128 90.92834
Sn  5.97172 -2.95824 90.00421
Sn  8.83530 -5.94645 91.63760
Sn  5.85970 -5.94238 92.46631
Sn  8.94839 -2.96060 94.09819
Sn  5.96371 -2.95763 93.26846
Sn  8.94550 -5.94425 94.84082
Sn  5.96706 -5.94273 95.66169
Sn  8.95069 -2.95774 97.30682
Sn  5.96700 -2.95760 96.48475
Sn  8.95172 -5.94326 98.09542
Sn  5.96721 -5.94253 98.91762
Sn  8.95392 -2.95753 100.49854
Sn  5.96750 -2.95774 99.68603
Sn  8.95127 -5.94186 101.30909
Sn  5.96673 -5.94260 102.12042
Sn  8.95169 -2.95761 103.74459
Sn  5.96503 -2.95734 102.92325
Sn  8.95147 -5.94254 104.51320
Sn  5.96645 -5.94241 105.32665
Sn  8.95116 -2.95739 106.93842
Sn  5.96778 -2.95713 106.11441
Sn  8.95156 -5.94238 107.76037
Sn  5.96869 -5.94252 108.57300
Sn  8.95444 -2.95715 110.15244
Sn  5.96902 -2.95736 109.32754
Sn  8.96134 -5.93839 110.95352
Sn  5.97840 -5.94261 111.76750
Sn  8.94554 -2.95639 113.40798
Sn  5.96866 -2.95749 112.49861
Sn  9.06719 -5.94194 114.12164
Sn  6.09454 -5.94255 115.00227
Sn  8.95200 -2.95748 116.66187
Sn  5.96805 -2.95763 115.79058
Sn  8.81371 -5.94262 117.33579
Sn  5.74965 -5.94208 118.16959
Sn  8.95192 -2.96211 119.77451
Sn  5.96022 -2.95650 118.93986
Sn  7.98137 -5.94282 120.25543
Sn  6.92214  0.02681 -52.46840
Sn  8.95034  2.90073 -51.14272
Sn  5.95464  3.01309 -51.98631
Sn  9.17302 -0.08279 -50.43294
Sn  6.09999  0.03169 -49.54199
Sn  8.84439  3.00584 -47.99395
Sn  5.85346  3.01624 -48.88075
Sn  8.70473  0.02102 -47.25389
Sn  5.72441  0.02616 -46.32269
Sn  8.95076  3.00872 -44.69466
Sn  5.97172  3.01176 -45.61879
Sn  8.83530  0.02355 -43.98540
Sn  5.85970  0.02762 -43.15669
Sn  8.94839  3.00940 -41.52481
Sn  5.96371  3.01237 -42.35454
Sn  8.94550  0.02575 -40.78218
Sn  5.96706  0.02727 -39.96131
Sn  8.95069  3.01226 -38.31618
Sn  5.96700  3.01240 -39.13825
Sn  8.95172  0.02674 -37.52758
Sn  5.96721  0.02747 -36.70538
Sn  8.95392  3.01247 -35.12446
Sn  5.96750  3.01226 -35.93697
Sn  8.95127  0.02814 -34.31391
Sn  5.96673  0.02740 -33.50258
Sn  8.95169  3.01239 -31.87841
Sn  5.96503  3.01266 -32.69975
Sn  8.95147  0.02746 -31.10980
Sn  5.96645  0.02759 -30.29635
Sn  8.95116  3.01261 -28.68458
Sn  5.96778  3.01287 -29.50859
Sn  8.95156  0.02762 -27.86263
Sn  5.96869  0.02748 -27.05000
Sn  8.95444  3.01285 -25.47056
Sn  5.96902  3.01264 -26.29546
Sn  8.96134  0.03161 -24.66948
Sn  5.97840  0.02739 -23.85550
Sn  8.94554  3.01361 -22.21502
Sn  5.96866  3.01251 -23.12439
Sn  9.06719  0.02806 -21.50136
Sn  6.09454  0.02745 -20.62073
Sn  8.95200  3.01252 -18.96113
Sn  5.96805  3.01237 -19.83242
Sn  8.81371  0.02738 -18.28721
Sn  5.74965  0.02792 -17.45341
Sn  8.95192  3.00789 -15.84849
Sn  5.96022  3.01350 -16.68314
Sn  7.98137  0.02718 -15.36757
Sn  6.92214  0.02681 15.34310
Sn  8.95034  2.90073 16.66878
Sn  5.95464  3.01309 15.82519
Sn  9.17302 -0.08279 17.37856
Sn  6.09999  0.03169 18.26951
Sn  8.84439  3.00584 19.81755
Sn  5.85346  3.01624 18.93075
Sn  8.70473  0.02102 20.55761
Sn  5.72441  0.02616 21.48881
Sn  8.95076  3.00872 23.11684
Sn  5.97172  3.01176 22.19271
Sn  8.83530  0.02355 23.82610
Sn  5.85970  0.02762 24.65481
Sn  8.94839  3.00940 26.28669
Sn  5.96371  3.01237 25.45696
Sn  8.94550  0.02575 27.02932
Sn  5.96706  0.02727 27.85019
Sn  8.95069  3.01226 29.49532
Sn  5.96700  3.01240 28.67325
Sn  8.95172  0.02674 30.28392
Sn  5.96721  0.02747 31.10612
Sn  8.95392  3.01247 32.68704
Sn  5.96750  3.01226 31.87453
Sn  8.95127  0.02814 33.49759
Sn  5.96673  0.02740 34.30892
Sn  8.95169  3.01239 35.93309
Sn  5.96503  3.01266 35.11175
Sn  8.95147  0.02746 36.70170
Sn  5.96645  0.02759 37.51515
Sn  8.95116  3.01261 39.12692
Sn  5.96778  3.01287 38.30291
Sn  8.95156  0.02762 39.94887
Sn  5.96869  0.02748 40.76150
Sn  8.95444  3.01285 42.34094
Sn  5.96902  3.01264 41.51604
Sn  8.96134  0.03161 43.14202
Sn  5.97840  0.02739 43.95600
Sn  8.94554  3.01361 45.59648
Sn  5.96866  3.01251 44.68711
Sn  9.06719  0.02806 46.31014
Sn  6.09454  0.02745 47.19077
Sn  8.95200  3.01252 48.85037
Sn  5.96805  3.01237 47.97908
Sn  8.81371  0.02738 49.52429
Sn  5.74965  0.02792 50.35809
Sn  8.95192  3.00789 51.96301
Sn  5.96022  3.01350 51.12836
Sn  7.98137  0.02718 52.44393
Sn  6.92214  0.02681 83.15460
Sn  8.95034  2.90073 84.48028
Sn  5.95464  3.01309 83.63669
Sn  9.17302 -0.08279 85.19006
Sn  6.09999  0.03169 86.08101
Sn  8.84439  3.00584 87.62905
Sn  5.85346  3.01624 86.74225
Sn  8.70473  0.02102 88.36911
Sn  5.72441  0.02616 89.30031
Sn  8.95076  3.00872 90.92834
Sn  5.97172  3.01176 90.00421
Sn  8.83530  0.02355 91.63760
Sn  5.85970  0.02762 92.46631
Sn  8.94839  3.00940 94.09819
Sn  5.96371  3.01237 93.26846
Sn  8.94550  0.02575 94.84082
Sn  5.96706  0.02727 95.66169
Sn  8.95069  3.01226 97.30682
Sn  5.96700  3.01240 96.48475
Sn  8.95172  0.02674 98.09542
Sn  5.96721  0.02747 98.91762
Sn  8.95392  3.01247 100.49854
Sn  5.96750  3.01226 99.68603
Sn  8.95127  0.02814 101.30909
Sn  5.96673  0.02740 102.12042
Sn  8.95169  3.01239 103.74459
Sn  5.96503  3.01266 102.92325
Sn  8.95147  0.02746 104.51320
Sn  5.96645  0.02759 105.32665
Sn  8.95116  3.01261 106.93842
Sn  5.96778  3.01287 106.11441
Sn  8.95156  0.02762 107.76037
Sn  5.96869  0.02748 108.57300
Sn  8.95444  3.01285 110.15244
Sn  5.96902  3.01264 109.32754
Sn  8.96134  0.03161 110.95352
Sn  5.97840  0.02739 111.76750
Sn  8.94554  3.01361 113.40798
Sn  5.96866  3.01251 112.49861
Sn  9.06719  0.02806 114.12164
Sn  6.09454  0.02745 115.00227
Sn  8.95200  3.01252 116.66187
Sn  5.96805  3.01237 115.79058
Sn  8.81371  0.02738 117.33579
Sn  5.74965  0.02792 118.16959
Sn  8.95192  3.00789 119.77451
Sn  5.96022  3.01350 118.93986
Sn  7.98137  0.02718 120.25543
Sn  6.92214  5.99681 -52.46840
Sn  8.95034  8.87073 -51.14272
Sn  5.95464  8.98309 -51.98631
Sn  9.17302  5.88721 -50.43294
Sn  6.09999  6.00169 -49.54199
Sn  8.84439  8.97584 -47.99395
Sn  5.85346  8.98624 -48.88075
Sn  8.70473  5.99102 -47.25389
Sn  5.72441  5.99616 -46.32269
Sn  8.95076  8.97872 -44.69466
Sn  5.97172  8.98176 -45.61879
Sn  8.83530  5.99355 -43.98540
Sn  5.85970  5.99762 -43.15669
Sn  8.94839  8.97940 -41.52481
Sn  5.96371  8.98237 -42.35454
Sn  8.94550  5.99575 -40.78218
Sn  5.96706  5.99727 -39.96131
Sn  8.95069  8.98226 -38.31618
Sn  5.96700  8.98240 -39.13825
Sn  8.95172  5.99674 -37.52758
Sn  5.96721  5.99747 -36.70538
Sn  8.95392  8.98247 -35.12446
Sn  5.96750  8.98226 -35.93697
Sn  8.95127  5.99814 -34.31391
Sn  5.96673  5.99740 -33.50258
Sn  8.95169  8.98239 -31.87841
Sn  5.96503  8.98266 -32.69975
Sn  8.95147  5.99746 -31.10980
Sn  5.96645  5.99759 -30.29635
Sn  8.95116  8.98261 -28.68458
Sn  5.96778  8.98287 -29.50859
Sn  8.95156  5.99762 -27.86263
Sn  5.96869  5.99748 -27.05000
Sn  8.95444  8.98285 -25.47056
Sn  5.96902  8.98264 -26.29546
Sn  8.96134  6.00161 -24.66948
Sn  5.97840  5.99739 -23.85550
Sn  8.94554  8.98361 -22.21502
Sn  5.96866  8.98251 -23.12439
Sn  9.06719  5.99806 -21.50136
Sn  6.09454  5.99745 -20.62073
Sn  8.95200  8.98252 -18.96113
Sn  5.96805  8.98237 -19.83242
Sn  8.81371  5.99738 -18.28721
Sn  5.74965  5.99792 -17.45341
Sn  8.95192  8.97789 -15.84849
Sn  5.96022  8.98350 -16.68314
Sn  7.98137  5.99718 -15.36757
Sn  6.92214  5.99681 15.34310
Sn  8.95034  8.87073 16.66878
Sn  5.95464  8.98309 15.82519
Sn  9.17302  5.88721 17.37856
Sn  6.09999  6.00169 18.26951
Sn  8.84439  8.97584 19.81755
Sn  5.85346  8.98624 18.93075
Sn  8.70473  5.99102 20.55761
Sn  5.72441  5.99616 21.48881
Sn  8.95076  8.97872 23.11684
Sn  5.97172  8.98176 22.19271
Sn  8.83530  5.99355 23.82610
Sn  5.85970  5.99762 24.65481
Sn  8.94839  8.97940 26.28669
Sn  5.96371  8.98237 25.45696
Sn  8.94550  5.99575 27.02932
Sn  5.96706  5.99727 27.85019
Sn  8.95069  8.98226 29.49532
Sn  5.96700  8.98240 28.67325
Sn  8.95172  5.99674 30.28392
Sn  5.96721  5.99747 31.10612
Sn  8.95392  8.98247 32.68704
Sn  5.96750  8.98226 31.87453
Sn  8.95127  5.99814 33.49759
Sn  5.96673  5.99740 34.30892
Sn  8.95169  8.98239 35.93309
Sn  5.96503  8.98266 35.11175
Sn  8.95147  5.99746 36.70170
Sn  5.96645  5.99759 37.51515
Sn  8.95116  8.98261 39.12692
Sn  5.96778  8.98287 38.30291
Sn  8.95156  5.99762 39.94887
Sn  5.96869  5.99748 40.76150
Sn  8.95444  8.98285 42.34094
Sn  5.96902  8.98264 41.51604
Sn  8.96134  6.00161 43.14202
Sn  5.97840  5.99739 43.95600
Sn  8.94554  8.98361 45.59648
Sn  5.96866  8.98251 44.68711
Sn  9.06719  5.99806 46.31014
Sn  6.09454  5.99745 47.19077
Sn  8.95200  8.98252 48.85037
Sn  5.96805  8.98237 47.97908
Sn  8.81371  5.99738 49.52429
Sn  5.74965  5.99792 50.35809
Sn  8.95192  8.97789 51.96301
Sn  5.96022  8.98350 51.12836
Sn  7.98137  5.99718 52.44393
Sn  6.92214  5.99681 83.15460
Sn  8.95034  8.87073 84.48028
Sn  5.95464  8.98309 83.63669
Sn  9.17302  5.88721 85.19006
Sn  6.09999  6.00169 86.08101
Sn  8.84439  8.97584 87.62905
Sn  5.85346  8.98624 86.74225
Sn  8.70473  5.99102 88.36911
Sn  5.72441  5.99616 89.30031
Sn  8.95076  8.97872 90.92834
Sn  5.97172  8.98176 90.00421
Sn  8.83530  5.99355 91.63760
Sn  5.85970  5.99762 92.46631
Sn  8.94839  8.97940 94.09819
Sn  5.96371  8.98237 93.26846
Sn  8.94550  5.99575 94.84082
Sn  5.96706  5.99727 95.66169
Sn  8.95069  8.98226 97.30682
Sn  5.96700  8.98240 96.48475
Sn  8.95172  5.99674 98.09542
Sn  5.96721  5.99747 98.91762
Sn  8.95392  8.98247 100.49854
Sn  5.96750  8.98226 99.68603
Sn  8.95127  5.99814 101.30909
Sn  5.96673  5.99740 102.12042
Sn  8.95169  8.98239 103.74459
Sn  5.96503  8.98266 102.92325
Sn  8.95147  5.99746 104.51320
Sn  5.96645  5.99759 105.32665
Sn  8.95116  8.98261 106.93842
Sn  5.96778  8.98287 106.11441
Sn  8.95156  5.99762 107.76037
Sn  5.96869  5.99748 108.57300
Sn  8.95444  8.98285 110.15244
Sn  5.96902  8.98264 109.32754
Sn  8.96134  6.00161 110.95352
Sn  5.97840  5.99739 111.76750
Sn  8.94554  8.98361 113.40798
Sn  5.96866  8.98251 112.49861
Sn  9.06719  5.99806 114.12164
Sn  6.09454  5.99745 115.00227
Sn  8.95200  8.98252 116.66187
Sn  5.96805  8.98237 115.79058
Sn  8.81371  5.99738 117.33579
Sn  5.74965  5.99792 118.16959
Sn  8.95192  8.97789 119.77451
Sn  5.96022  8.98350 118.93986
Sn  7.98137  5.99718 120.25543
