48 

Sn    0.95214   0.02681  15.34310   0.000001296193509  -0.000057184883271  -0.000046463627854
Sn    2.98034   2.90073  16.66878  -0.000088799450985  -0.000089770797524  -0.000003949432080
Sn   -0.01536   3.01309  15.82519   0.000049878133981   0.000046048604563  -0.000011052484214
Sn    3.20302  -0.08279  17.37856  -0.000208732147280   0.000178066044585  -0.000036679117017
Sn    0.12999   0.03169  18.26951   0.000088276048108   0.000093971107159   0.000003149067421
Sn    2.87439   3.00584  19.81755   0.000026265254029  -0.000048157937333   0.000104159401808
Sn   -0.11654   3.01624  18.93075   0.000030215696444  -0.000000163034228  -0.000034511551887
Sn    2.73473   0.02102  20.55761  -0.000133003438268  -0.000171824053090   0.000178039135022
Sn   -0.24559   0.02616  21.48881  -0.000267248032270  -0.000172073397799   0.000152925260866
Sn    2.98076   3.00872  23.11684  -0.000044781864512   0.000001799332266   0.000273768002890
Sn    0.00172   3.01176  22.19271  -0.000018220645829  -0.000026145167675  -0.000114054387051
Sn    2.86530   0.02355  23.82610  -0.000028570725146  -0.000134122207037   0.000026090112907
Sn   -0.11030   0.02762  24.65481  -0.000004969316215   0.000045125870866  -0.000055653344924
Sn    2.97839   3.00940  26.28669   0.000141777205787  -0.000038928546917  -0.000001375043974
Sn   -0.00629   3.01237  25.45696  -0.000061166416688  -0.000028363926156   0.000051920641470
Sn    2.97550   0.02575  27.02932   0.000015533704358  -0.000083559521771   0.000051473083505
Sn   -0.00294   0.02727  27.85019   0.000167302415377  -0.000015078824870  -0.000082730616229
Sn    2.98069   3.01226  29.49532   0.000043001408405   0.000002637567914  -0.000039638123445
Sn   -0.00300   3.01240  28.67325  -0.000005373643247  -0.000039512435001   0.000018172391373
Sn    2.98172   0.02674  30.28392  -0.000019537051652   0.000023170208323   0.000043118287120
Sn   -0.00279   0.02747  31.10612  -0.000012189679359   0.000033516390924   0.000044803510633
Sn    2.98392   3.01247  32.68704   0.000112929763125  -0.000026252240952  -0.000080374464960
Sn   -0.00250   3.01226  31.87453   0.000090534136520  -0.000066851253197   0.000011671219203
Sn    2.98127   0.02814  33.49759  -0.000054202817786   0.000042058141113   0.000101917227213
Sn   -0.00327   0.02740  34.30892   0.000056381807497  -0.000013729964347  -0.000124252330873
Sn    2.98169   3.01239  35.93309  -0.000029007826375  -0.000016582718953  -0.000009772544533
Sn   -0.00497   3.01266  35.11175   0.000008829396606   0.000055446056715   0.000013408949545
Sn    2.98147   0.02746  36.70170  -0.000060984533798  -0.000005524579178  -0.000164131822502
Sn   -0.00355   0.02759  37.51515   0.000015456011605   0.000010270667908   0.000052456589997
Sn    2.98116   3.01261  39.12692  -0.000040122416956   0.000029681984641   0.000028029958019
Sn   -0.00222   3.01287  38.30291   0.000055969137254   0.000044904015596  -0.000147401872161
Sn    2.98156   0.02762  39.94887   0.000015359900104   0.000018195836571   0.000065145791005
Sn   -0.00131   0.02748  40.76150   0.000047102339658  -0.000028097175237  -0.000031600211688
Sn    2.98444   3.01285  42.34094   0.000065883169821  -0.000047151238845  -0.000034431294426
Sn   -0.00098   3.01264  41.51604  -0.000084384825951   0.000060887903932  -0.000057172496638
Sn    2.99134   0.03161  43.14202   0.000231812987556   0.000197005117881   0.000138415251061
Sn    0.00840   0.02739  43.95600   0.000078647186904  -0.000017531263844  -0.000061479750215
Sn    2.97554   3.01361  45.59648   0.000136874247764   0.000057434585216  -0.000002684785975
Sn   -0.00134   3.01251  44.68711   0.000026054310219   0.000014797605483   0.000043314581379
Sn    3.09719   0.02806  46.31014  -0.000051722195407   0.000015549676916  -0.000015317762069
Sn    0.12454   0.02745  47.19077   0.000069131229891  -0.000017985761983   0.000075003587897
Sn    2.98200   3.01252  48.85037  -0.000043440689580   0.000036337180894  -0.000154557986644
Sn   -0.00195   3.01237  47.97908   0.000002761417370  -0.000025980193519  -0.000092332608634
Sn    2.84371   0.02738  49.52429   0.000006676220205  -0.000038329241982   0.000011407109173
Sn   -0.22035   0.02792  50.35809  -0.000043924427624   0.000042575613325  -0.000106076556392
Sn    2.98192   3.00789  51.96301   0.000041139056134  -0.000162834046934  -0.000044035803929
Sn   -0.00978   3.01350  51.12836   0.000042038797388  -0.000010000306729   0.000119472319755
Sn    2.01137   0.02718  52.44393  -0.000081723287288   0.000069746501734  -0.000044777497653
