1296

Sn  0.11837 -0.00394 -46.58323
Sn -3.27273 -2.98890 -46.58325
Sn -0.31816 -2.98700 -46.13152
Sn -3.70918 -5.97197 -46.13161
Sn -1.55798 -0.00504 -43.97049
Sn -4.94901 -2.99003 -43.97049
Sn -1.88361 -2.99029 -43.34255
Sn -5.27465 -0.00530 -43.34257
Sn -3.11424 -0.00541 -41.09464
Sn -6.50531 -2.99040 -41.09464
Sn -3.49907 -2.99018 -40.49204
Sn -0.10802 -0.00518 -40.49205
Sn -4.68106 -0.00488 -38.34144
Sn -1.29005 -2.98984 -38.34141
Sn -5.04677 -2.99007 -37.63652
Sn -1.65573 -0.00510 -37.63649
Sn -6.19109 -0.00512 -35.52514
Sn -2.80009 -2.99000 -35.52514
Sn -6.60103 -2.99002 -34.82454
Sn -3.20984 -0.00506 -34.82468
Sn -0.93586 -0.00414 -32.70015
Sn -4.32675 -2.98904 -32.70016
Sn -1.31660 -2.98612 -31.99324
Sn -4.70761 -0.00107 -31.99320
Sn -2.49791 -0.00108 -29.87450
Sn -5.88895 -2.98610 -29.87448
Sn -2.87878 -2.98905 -29.16755
Sn -6.26970 -0.00413 -29.16755
Sn -3.99571 -0.00506 -27.04304
Sn -0.60453 -2.99000 -27.04316
Sn -4.40545 -2.99000 -26.34255
Sn -1.01445 -0.00512 -26.34254
Sn -5.54982 -0.00509 -24.23122
Sn -2.15878 -2.99007 -24.23119
Sn -5.91550 -2.98984 -23.52630
Sn -2.52448 -0.00487 -23.52627
Sn -0.31545 -0.00518 -21.37566
Sn -3.70648 -2.99018 -21.37566
Sn -0.70025 -2.99040 -20.77307
Sn -4.09130 -0.00541 -20.77306
Sn -1.93090 -0.00529 -18.52516
Sn -5.32193 -2.99029 -18.52516
Sn -2.25654 -2.99004 -17.89722
Sn -5.64757 -0.00504 -17.89722
Sn -3.49635 -0.00198 -15.73613
Sn -0.10532 -2.98698 -15.73616
Sn -3.93282 -2.98890 -15.28446
Sn -0.54182 -0.00392 -15.28447
Sn  0.11837 -0.00394 15.28448
Sn -3.27273 -2.98890 15.28446
Sn -0.31816 -2.98700 15.73619
Sn -3.70918 -5.97197 15.73610
Sn -1.55798 -0.00504 17.89722
Sn -4.94901 -2.99003 17.89722
Sn -1.88361 -2.99029 18.52516
Sn -5.27465 -0.00530 18.52514
Sn -3.11424 -0.00541 20.77307
Sn -6.50531 -2.99040 20.77307
Sn -3.49907 -2.99018 21.37567
Sn -0.10802 -0.00518 21.37566
Sn -4.68106 -0.00488 23.52627
Sn -1.29005 -2.98984 23.52630
Sn -5.04677 -2.99007 24.23119
Sn -1.65573 -0.00510 24.23122
Sn -6.19109 -0.00512 26.34257
Sn -2.80009 -2.99000 26.34257
Sn -6.60103 -2.99002 27.04317
Sn -3.20984 -0.00506 27.04303
Sn -0.93586 -0.00414 29.16756
Sn -4.32675 -2.98904 29.16755
Sn -1.31660 -2.98612 29.87447
Sn -4.70761 -0.00107 29.87451
Sn -2.49791 -0.00108 31.99321
Sn -5.88895 -2.98610 31.99323
Sn -2.87878 -2.98905 32.70016
Sn -6.26970 -0.00413 32.70016
Sn -3.99571 -0.00506 34.82467
Sn -0.60453 -2.99000 34.82455
Sn -4.40545 -2.99000 35.52516
Sn -1.01445 -0.00512 35.52517
Sn -5.54982 -0.00509 37.63649
Sn -2.15878 -2.99007 37.63652
Sn -5.91550 -2.98984 38.34141
Sn -2.52448 -0.00487 38.34144
Sn -0.31545 -0.00518 40.49205
Sn -3.70648 -2.99018 40.49205
Sn -0.70025 -2.99040 41.09464
Sn -4.09130 -0.00541 41.09465
Sn -1.93090 -0.00529 43.34255
Sn -5.32193 -2.99029 43.34255
Sn -2.25654 -2.99004 43.97049
Sn -5.64757 -0.00504 43.97049
Sn -3.49635 -0.00198 46.13158
Sn -0.10532 -2.98698 46.13155
Sn -3.93282 -2.98890 46.58325
Sn -0.54182 -0.00392 46.58324
Sn  0.11837 -0.00394 77.15219
Sn -3.27273 -2.98890 77.15217
Sn -0.31816 -2.98700 77.60390
Sn -3.70918 -5.97197 77.60381
Sn -1.55798 -0.00504 79.76493
Sn -4.94901 -2.99003 79.76493
Sn -1.88361 -2.99029 80.39287
Sn -5.27465 -0.00530 80.39285
Sn -3.11424 -0.00541 82.64078
Sn -6.50531 -2.99040 82.64078
Sn -3.49907 -2.99018 83.24338
Sn -0.10802 -0.00518 83.24337
Sn -4.68106 -0.00488 85.39398
Sn -1.29005 -2.98984 85.39401
Sn -5.04677 -2.99007 86.09890
Sn -1.65573 -0.00510 86.09893
Sn -6.19109 -0.00512 88.21028
Sn -2.80009 -2.99000 88.21028
Sn -6.60103 -2.99002 88.91088
Sn -3.20984 -0.00506 88.91074
Sn -0.93586 -0.00414 91.03527
Sn -4.32675 -2.98904 91.03526
Sn -1.31660 -2.98612 91.74218
Sn -4.70761 -0.00107 91.74222
Sn -2.49791 -0.00108 93.86092
Sn -5.88895 -2.98610 93.86094
Sn -2.87878 -2.98905 94.56787
Sn -6.26970 -0.00413 94.56787
Sn -3.99571 -0.00506 96.69238
Sn -0.60453 -2.99000 96.69226
Sn -4.40545 -2.99000 97.39287
Sn -1.01445 -0.00512 97.39288
Sn -5.54982 -0.00509 99.50420
Sn -2.15878 -2.99007 99.50423
Sn -5.91550 -2.98984 100.20912
Sn -2.52448 -0.00487 100.20915
Sn -0.31545 -0.00518 102.35976
Sn -3.70648 -2.99018 102.35976
Sn -0.70025 -2.99040 102.96235
Sn -4.09130 -0.00541 102.96236
Sn -1.93090 -0.00529 105.21026
Sn -5.32193 -2.99029 105.21026
Sn -2.25654 -2.99004 105.83820
Sn -5.64757 -0.00504 105.83820
Sn -3.49635 -0.00198 107.99929
Sn -0.10532 -2.98698 107.99926
Sn -3.93282 -2.98890 108.45096
Sn -0.54182 -0.00392 108.45095
Sn  0.11837  5.96606 -46.58323
Sn -3.27273  2.98110 -46.58325
Sn -0.31816  2.98300 -46.13152
Sn -3.70918 -0.00197 -46.13161
Sn -1.55798  5.96496 -43.97049
Sn -4.94901  2.97997 -43.97049
Sn -1.88361  2.97971 -43.34255
Sn -5.27465  5.96470 -43.34257
Sn -3.11424  5.96459 -41.09464
Sn -6.50531  2.97960 -41.09464
Sn -3.49907  2.97982 -40.49204
Sn -0.10802  5.96482 -40.49205
Sn -4.68106  5.96512 -38.34144
Sn -1.29005  2.98016 -38.34141
Sn -5.04677  2.97993 -37.63652
Sn -1.65573  5.96490 -37.63649
Sn -6.19109  5.96488 -35.52514
Sn -2.80009  2.98000 -35.52514
Sn -6.60103  2.97998 -34.82454
Sn -3.20984  5.96494 -34.82468
Sn -0.93586  5.96586 -32.70015
Sn -4.32675  2.98096 -32.70016
Sn -1.31660  2.98388 -31.99324
Sn -4.70761  5.96893 -31.99320
Sn -2.49791  5.96892 -29.87450
Sn -5.88895  2.98390 -29.87448
Sn -2.87878  2.98095 -29.16755
Sn -6.26970  5.96587 -29.16755
Sn -3.99571  5.96494 -27.04304
Sn -0.60453  2.98000 -27.04316
Sn -4.40545  2.98000 -26.34255
Sn -1.01445  5.96488 -26.34254
Sn -5.54982  5.96491 -24.23122
Sn -2.15878  2.97993 -24.23119
Sn -5.91550  2.98016 -23.52630
Sn -2.52448  5.96513 -23.52627
Sn -0.31545  5.96482 -21.37566
Sn -3.70648  2.97982 -21.37566
Sn -0.70025  2.97960 -20.77307
Sn -4.09130  5.96459 -20.77306
Sn -1.93090  5.96471 -18.52516
Sn -5.32193  2.97971 -18.52516
Sn -2.25654  2.97996 -17.89722
Sn -5.64757  5.96496 -17.89722
Sn -3.49635  5.96802 -15.73613
Sn -0.10532  2.98302 -15.73616
Sn -3.93282  2.98110 -15.28446
Sn -0.54182  5.96608 -15.28447
Sn  0.11837  5.96606 15.28448
Sn -3.27273  2.98110 15.28446
Sn -0.31816  2.98300 15.73619
Sn -3.70918 -0.00197 15.73610
Sn -1.55798  5.96496 17.89722
Sn -4.94901  2.97997 17.89722
Sn -1.88361  2.97971 18.52516
Sn -5.27465  5.96470 18.52514
Sn -3.11424  5.96459 20.77307
Sn -6.50531  2.97960 20.77307
Sn -3.49907  2.97982 21.37567
Sn -0.10802  5.96482 21.37566
Sn -4.68106  5.96512 23.52627
Sn -1.29005  2.98016 23.52630
Sn -5.04677  2.97993 24.23119
Sn -1.65573  5.96490 24.23122
Sn -6.19109  5.96488 26.34257
Sn -2.80009  2.98000 26.34257
Sn -6.60103  2.97998 27.04317
Sn -3.20984  5.96494 27.04303
Sn -0.93586  5.96586 29.16756
Sn -4.32675  2.98096 29.16755
Sn -1.31660  2.98388 29.87447
Sn -4.70761  5.96893 29.87451
Sn -2.49791  5.96892 31.99321
Sn -5.88895  2.98390 31.99323
Sn -2.87878  2.98095 32.70016
Sn -6.26970  5.96587 32.70016
Sn -3.99571  5.96494 34.82467
Sn -0.60453  2.98000 34.82455
Sn -4.40545  2.98000 35.52516
Sn -1.01445  5.96488 35.52517
Sn -5.54982  5.96491 37.63649
Sn -2.15878  2.97993 37.63652
Sn -5.91550  2.98016 38.34141
Sn -2.52448  5.96513 38.34144
Sn -0.31545  5.96482 40.49205
Sn -3.70648  2.97982 40.49205
Sn -0.70025  2.97960 41.09464
Sn -4.09130  5.96459 41.09465
Sn -1.93090  5.96471 43.34255
Sn -5.32193  2.97971 43.34255
Sn -2.25654  2.97996 43.97049
Sn -5.64757  5.96496 43.97049
Sn -3.49635  5.96802 46.13158
Sn -0.10532  2.98302 46.13155
Sn -3.93282  2.98110 46.58325
Sn -0.54182  5.96608 46.58324
Sn  0.11837  5.96606 77.15219
Sn -3.27273  2.98110 77.15217
Sn -0.31816  2.98300 77.60390
Sn -3.70918 -0.00197 77.60381
Sn -1.55798  5.96496 79.76493
Sn -4.94901  2.97997 79.76493
Sn -1.88361  2.97971 80.39287
Sn -5.27465  5.96470 80.39285
Sn -3.11424  5.96459 82.64078
Sn -6.50531  2.97960 82.64078
Sn -3.49907  2.97982 83.24338
Sn -0.10802  5.96482 83.24337
Sn -4.68106  5.96512 85.39398
Sn -1.29005  2.98016 85.39401
Sn -5.04677  2.97993 86.09890
Sn -1.65573  5.96490 86.09893
Sn -6.19109  5.96488 88.21028
Sn -2.80009  2.98000 88.21028
Sn -6.60103  2.97998 88.91088
Sn -3.20984  5.96494 88.91074
Sn -0.93586  5.96586 91.03527
Sn -4.32675  2.98096 91.03526
Sn -1.31660  2.98388 91.74218
Sn -4.70761  5.96893 91.74222
Sn -2.49791  5.96892 93.86092
Sn -5.88895  2.98390 93.86094
Sn -2.87878  2.98095 94.56787
Sn -6.26970  5.96587 94.56787
Sn -3.99571  5.96494 96.69238
Sn -0.60453  2.98000 96.69226
Sn -4.40545  2.98000 97.39287
Sn -1.01445  5.96488 97.39288
Sn -5.54982  5.96491 99.50420
Sn -2.15878  2.97993 99.50423
Sn -5.91550  2.98016 100.20912
Sn -2.52448  5.96513 100.20915
Sn -0.31545  5.96482 102.35976
Sn -3.70648  2.97982 102.35976
Sn -0.70025  2.97960 102.96235
Sn -4.09130  5.96459 102.96236
Sn -1.93090  5.96471 105.21026
Sn -5.32193  2.97971 105.21026
Sn -2.25654  2.97996 105.83820
Sn -5.64757  5.96496 105.83820
Sn -3.49635  5.96802 107.99929
Sn -0.10532  2.98302 107.99926
Sn -3.93282  2.98110 108.45096
Sn -0.54182  5.96608 108.45095
Sn  0.11837 11.93606 -46.58323
Sn -3.27273  8.95110 -46.58325
Sn -0.31816  8.95300 -46.13152
Sn -3.70918  5.96803 -46.13161
Sn -1.55798 11.93496 -43.97049
Sn -4.94901  8.94997 -43.97049
Sn -1.88361  8.94971 -43.34255
Sn -5.27465 11.93470 -43.34257
Sn -3.11424 11.93459 -41.09464
Sn -6.50531  8.94960 -41.09464
Sn -3.49907  8.94982 -40.49204
Sn -0.10802 11.93482 -40.49205
Sn -4.68106 11.93512 -38.34144
Sn -1.29005  8.95016 -38.34141
Sn -5.04677  8.94993 -37.63652
Sn -1.65573 11.93490 -37.63649
Sn -6.19109 11.93488 -35.52514
Sn -2.80009  8.95000 -35.52514
Sn -6.60103  8.94998 -34.82454
Sn -3.20984 11.93494 -34.82468
Sn -0.93586 11.93586 -32.70015
Sn -4.32675  8.95096 -32.70016
Sn -1.31660  8.95388 -31.99324
Sn -4.70761 11.93893 -31.99320
Sn -2.49791 11.93892 -29.87450
Sn -5.88895  8.95390 -29.87448
Sn -2.87878  8.95095 -29.16755
Sn -6.26970 11.93587 -29.16755
Sn -3.99571 11.93494 -27.04304
Sn -0.60453  8.95000 -27.04316
Sn -4.40545  8.95000 -26.34255
Sn -1.01445 11.93488 -26.34254
Sn -5.54982 11.93491 -24.23122
Sn -2.15878  8.94993 -24.23119
Sn -5.91550  8.95016 -23.52630
Sn -2.52448 11.93513 -23.52627
Sn -0.31545 11.93482 -21.37566
Sn -3.70648  8.94982 -21.37566
Sn -0.70025  8.94960 -20.77307
Sn -4.09130 11.93459 -20.77306
Sn -1.93090 11.93471 -18.52516
Sn -5.32193  8.94971 -18.52516
Sn -2.25654  8.94996 -17.89722
Sn -5.64757 11.93496 -17.89722
Sn -3.49635 11.93802 -15.73613
Sn -0.10532  8.95302 -15.73616
Sn -3.93282  8.95110 -15.28446
Sn -0.54182 11.93608 -15.28447
Sn  0.11837 11.93606 15.28448
Sn -3.27273  8.95110 15.28446
Sn -0.31816  8.95300 15.73619
Sn -3.70918  5.96803 15.73610
Sn -1.55798 11.93496 17.89722
Sn -4.94901  8.94997 17.89722
Sn -1.88361  8.94971 18.52516
Sn -5.27465 11.93470 18.52514
Sn -3.11424 11.93459 20.77307
Sn -6.50531  8.94960 20.77307
Sn -3.49907  8.94982 21.37567
Sn -0.10802 11.93482 21.37566
Sn -4.68106 11.93512 23.52627
Sn -1.29005  8.95016 23.52630
Sn -5.04677  8.94993 24.23119
Sn -1.65573 11.93490 24.23122
Sn -6.19109 11.93488 26.34257
Sn -2.80009  8.95000 26.34257
Sn -6.60103  8.94998 27.04317
Sn -3.20984 11.93494 27.04303
Sn -0.93586 11.93586 29.16756
Sn -4.32675  8.95096 29.16755
Sn -1.31660  8.95388 29.87447
Sn -4.70761 11.93893 29.87451
Sn -2.49791 11.93892 31.99321
Sn -5.88895  8.95390 31.99323
Sn -2.87878  8.95095 32.70016
Sn -6.26970 11.93587 32.70016
Sn -3.99571 11.93494 34.82467
Sn -0.60453  8.95000 34.82455
Sn -4.40545  8.95000 35.52516
Sn -1.01445 11.93488 35.52517
Sn -5.54982 11.93491 37.63649
Sn -2.15878  8.94993 37.63652
Sn -5.91550  8.95016 38.34141
Sn -2.52448 11.93513 38.34144
Sn -0.31545 11.93482 40.49205
Sn -3.70648  8.94982 40.49205
Sn -0.70025  8.94960 41.09464
Sn -4.09130 11.93459 41.09465
Sn -1.93090 11.93471 43.34255
Sn -5.32193  8.94971 43.34255
Sn -2.25654  8.94996 43.97049
Sn -5.64757 11.93496 43.97049
Sn -3.49635 11.93802 46.13158
Sn -0.10532  8.95302 46.13155
Sn -3.93282  8.95110 46.58325
Sn -0.54182 11.93608 46.58324
Sn  0.11837 11.93606 77.15219
Sn -3.27273  8.95110 77.15217
Sn -0.31816  8.95300 77.60390
Sn -3.70918  5.96803 77.60381
Sn -1.55798 11.93496 79.76493
Sn -4.94901  8.94997 79.76493
Sn -1.88361  8.94971 80.39287
Sn -5.27465 11.93470 80.39285
Sn -3.11424 11.93459 82.64078
Sn -6.50531  8.94960 82.64078
Sn -3.49907  8.94982 83.24338
Sn -0.10802 11.93482 83.24337
Sn -4.68106 11.93512 85.39398
Sn -1.29005  8.95016 85.39401
Sn -5.04677  8.94993 86.09890
Sn -1.65573 11.93490 86.09893
Sn -6.19109 11.93488 88.21028
Sn -2.80009  8.95000 88.21028
Sn -6.60103  8.94998 88.91088
Sn -3.20984 11.93494 88.91074
Sn -0.93586 11.93586 91.03527
Sn -4.32675  8.95096 91.03526
Sn -1.31660  8.95388 91.74218
Sn -4.70761 11.93893 91.74222
Sn -2.49791 11.93892 93.86092
Sn -5.88895  8.95390 93.86094
Sn -2.87878  8.95095 94.56787
Sn -6.26970 11.93587 94.56787
Sn -3.99571 11.93494 96.69238
Sn -0.60453  8.95000 96.69226
Sn -4.40545  8.95000 97.39287
Sn -1.01445 11.93488 97.39288
Sn -5.54982 11.93491 99.50420
Sn -2.15878  8.94993 99.50423
Sn -5.91550  8.95016 100.20912
Sn -2.52448 11.93513 100.20915
Sn -0.31545 11.93482 102.35976
Sn -3.70648  8.94982 102.35976
Sn -0.70025  8.94960 102.96235
Sn -4.09130 11.93459 102.96236
Sn -1.93090 11.93471 105.21026
Sn -5.32193  8.94971 105.21026
Sn -2.25654  8.94996 105.83820
Sn -5.64757 11.93496 105.83820
Sn -3.49635 11.93802 107.99929
Sn -0.10532  8.95302 107.99926
Sn -3.93282  8.95110 108.45096
Sn -0.54182 11.93608 108.45095
Sn  6.90043 -0.00394 -46.58323
Sn  3.50934 -2.98890 -46.58325
Sn  6.46390 -2.98700 -46.13152
Sn  3.07288 -5.97197 -46.13161
Sn  5.22409 -0.00504 -43.97049
Sn  1.83306 -2.99003 -43.97049
Sn  4.89845 -2.99029 -43.34255
Sn  1.50742 -0.00530 -43.34257
Sn  3.66783 -0.00541 -41.09464
Sn  0.27676 -2.99040 -41.09464
Sn  3.28299 -2.99018 -40.49204
Sn  6.67404 -0.00518 -40.49205
Sn  2.10100 -0.00488 -38.34144
Sn  5.49202 -2.98984 -38.34141
Sn  1.73530 -2.99007 -37.63652
Sn  5.12634 -0.00510 -37.63649
Sn  0.59098 -0.00512 -35.52514
Sn  3.98197 -2.99000 -35.52514
Sn  0.18103 -2.99002 -34.82454
Sn  3.57223 -0.00506 -34.82468
Sn  5.84621 -0.00414 -32.70015
Sn  2.45532 -2.98904 -32.70016
Sn  5.46547 -2.98612 -31.99324
Sn  2.07446 -0.00107 -31.99320
Sn  4.28416 -0.00108 -29.87450
Sn  0.89312 -2.98610 -29.87448
Sn  3.90329 -2.98905 -29.16755
Sn  0.51237 -0.00413 -29.16755
Sn  2.78635 -0.00506 -27.04304
Sn  6.17754 -2.99000 -27.04316
Sn  2.37662 -2.99000 -26.34255
Sn  5.76761 -0.00512 -26.34254
Sn  1.23225 -0.00509 -24.23122
Sn  4.62329 -2.99007 -24.23119
Sn  0.86656 -2.98984 -23.52630
Sn  4.25759 -0.00487 -23.52627
Sn  6.46661 -0.00518 -21.37566
Sn  3.07559 -2.99018 -21.37566
Sn  6.08182 -2.99040 -20.77307
Sn  2.69077 -0.00541 -20.77306
Sn  4.85116 -0.00529 -18.52516
Sn  1.46014 -2.99029 -18.52516
Sn  4.52553 -2.99004 -17.89722
Sn  1.13450 -0.00504 -17.89722
Sn  3.28571 -0.00198 -15.73613
Sn  6.67675 -2.98698 -15.73616
Sn  2.84925 -2.98890 -15.28446
Sn  6.24025 -0.00392 -15.28447
Sn  6.90043 -0.00394 15.28448
Sn  3.50934 -2.98890 15.28446
Sn  6.46390 -2.98700 15.73619
Sn  3.07288 -5.97197 15.73610
Sn  5.22409 -0.00504 17.89722
Sn  1.83306 -2.99003 17.89722
Sn  4.89845 -2.99029 18.52516
Sn  1.50742 -0.00530 18.52514
Sn  3.66783 -0.00541 20.77307
Sn  0.27676 -2.99040 20.77307
Sn  3.28299 -2.99018 21.37567
Sn  6.67404 -0.00518 21.37566
Sn  2.10100 -0.00488 23.52627
Sn  5.49202 -2.98984 23.52630
Sn  1.73530 -2.99007 24.23119
Sn  5.12634 -0.00510 24.23122
Sn  0.59098 -0.00512 26.34257
Sn  3.98197 -2.99000 26.34257
Sn  0.18103 -2.99002 27.04317
Sn  3.57223 -0.00506 27.04303
Sn  5.84621 -0.00414 29.16756
Sn  2.45532 -2.98904 29.16755
Sn  5.46547 -2.98612 29.87447
Sn  2.07446 -0.00107 29.87451
Sn  4.28416 -0.00108 31.99321
Sn  0.89312 -2.98610 31.99323
Sn  3.90329 -2.98905 32.70016
Sn  0.51237 -0.00413 32.70016
Sn  2.78635 -0.00506 34.82467
Sn  6.17754 -2.99000 34.82455
Sn  2.37662 -2.99000 35.52516
Sn  5.76761 -0.00512 35.52517
Sn  1.23225 -0.00509 37.63649
Sn  4.62329 -2.99007 37.63652
Sn  0.86656 -2.98984 38.34141
Sn  4.25759 -0.00487 38.34144
Sn  6.46661 -0.00518 40.49205
Sn  3.07559 -2.99018 40.49205
Sn  6.08182 -2.99040 41.09464
Sn  2.69077 -0.00541 41.09465
Sn  4.85116 -0.00529 43.34255
Sn  1.46014 -2.99029 43.34255
Sn  4.52553 -2.99004 43.97049
Sn  1.13450 -0.00504 43.97049
Sn  3.28571 -0.00198 46.13158
Sn  6.67675 -2.98698 46.13155
Sn  2.84925 -2.98890 46.58325
Sn  6.24025 -0.00392 46.58324
Sn  6.90043 -0.00394 77.15219
Sn  3.50934 -2.98890 77.15217
Sn  6.46390 -2.98700 77.60390
Sn  3.07288 -5.97197 77.60381
Sn  5.22409 -0.00504 79.76493
Sn  1.83306 -2.99003 79.76493
Sn  4.89845 -2.99029 80.39287
Sn  1.50742 -0.00530 80.39285
Sn  3.66783 -0.00541 82.64078
Sn  0.27676 -2.99040 82.64078
Sn  3.28299 -2.99018 83.24338
Sn  6.67404 -0.00518 83.24337
Sn  2.10100 -0.00488 85.39398
Sn  5.49202 -2.98984 85.39401
Sn  1.73530 -2.99007 86.09890
Sn  5.12634 -0.00510 86.09893
Sn  0.59098 -0.00512 88.21028
Sn  3.98197 -2.99000 88.21028
Sn  0.18103 -2.99002 88.91088
Sn  3.57223 -0.00506 88.91074
Sn  5.84621 -0.00414 91.03527
Sn  2.45532 -2.98904 91.03526
Sn  5.46547 -2.98612 91.74218
Sn  2.07446 -0.00107 91.74222
Sn  4.28416 -0.00108 93.86092
Sn  0.89312 -2.98610 93.86094
Sn  3.90329 -2.98905 94.56787
Sn  0.51237 -0.00413 94.56787
Sn  2.78635 -0.00506 96.69238
Sn  6.17754 -2.99000 96.69226
Sn  2.37662 -2.99000 97.39287
Sn  5.76761 -0.00512 97.39288
Sn  1.23225 -0.00509 99.50420
Sn  4.62329 -2.99007 99.50423
Sn  0.86656 -2.98984 100.20912
Sn  4.25759 -0.00487 100.20915
Sn  6.46661 -0.00518 102.35976
Sn  3.07559 -2.99018 102.35976
Sn  6.08182 -2.99040 102.96235
Sn  2.69077 -0.00541 102.96236
Sn  4.85116 -0.00529 105.21026
Sn  1.46014 -2.99029 105.21026
Sn  4.52553 -2.99004 105.83820
Sn  1.13450 -0.00504 105.83820
Sn  3.28571 -0.00198 107.99929
Sn  6.67675 -2.98698 107.99926
Sn  2.84925 -2.98890 108.45096
Sn  6.24025 -0.00392 108.45095
Sn  6.90043  5.96606 -46.58323
Sn  3.50934  2.98110 -46.58325
Sn  6.46390  2.98300 -46.13152
Sn  3.07288 -0.00197 -46.13161
Sn  5.22409  5.96496 -43.97049
Sn  1.83306  2.97997 -43.97049
Sn  4.89845  2.97971 -43.34255
Sn  1.50742  5.96470 -43.34257
Sn  3.66783  5.96459 -41.09464
Sn  0.27676  2.97960 -41.09464
Sn  3.28299  2.97982 -40.49204
Sn  6.67404  5.96482 -40.49205
Sn  2.10100  5.96512 -38.34144
Sn  5.49202  2.98016 -38.34141
Sn  1.73530  2.97993 -37.63652
Sn  5.12634  5.96490 -37.63649
Sn  0.59098  5.96488 -35.52514
Sn  3.98197  2.98000 -35.52514
Sn  0.18103  2.97998 -34.82454
Sn  3.57223  5.96494 -34.82468
Sn  5.84621  5.96586 -32.70015
Sn  2.45532  2.98096 -32.70016
Sn  5.46547  2.98388 -31.99324
Sn  2.07446  5.96893 -31.99320
Sn  4.28416  5.96892 -29.87450
Sn  0.89312  2.98390 -29.87448
Sn  3.90329  2.98095 -29.16755
Sn  0.51237  5.96587 -29.16755
Sn  2.78635  5.96494 -27.04304
Sn  6.17754  2.98000 -27.04316
Sn  2.37662  2.98000 -26.34255
Sn  5.76761  5.96488 -26.34254
Sn  1.23225  5.96491 -24.23122
Sn  4.62329  2.97993 -24.23119
Sn  0.86656  2.98016 -23.52630
Sn  4.25759  5.96513 -23.52627
Sn  6.46661  5.96482 -21.37566
Sn  3.07559  2.97982 -21.37566
Sn  6.08182  2.97960 -20.77307
Sn  2.69077  5.96459 -20.77306
Sn  4.85116  5.96471 -18.52516
Sn  1.46014  2.97971 -18.52516
Sn  4.52553  2.97996 -17.89722
Sn  1.13450  5.96496 -17.89722
Sn  3.28571  5.96802 -15.73613
Sn  6.67675  2.98302 -15.73616
Sn  2.84925  2.98110 -15.28446
Sn  6.24025  5.96608 -15.28447
Sn  6.90043  5.96606 15.28448
Sn  3.50934  2.98110 15.28446
Sn  6.46390  2.98300 15.73619
Sn  3.07288 -0.00197 15.73610
Sn  5.22409  5.96496 17.89722
Sn  1.83306  2.97997 17.89722
Sn  4.89845  2.97971 18.52516
Sn  1.50742  5.96470 18.52514
Sn  3.66783  5.96459 20.77307
Sn  0.27676  2.97960 20.77307
Sn  3.28299  2.97982 21.37567
Sn  6.67404  5.96482 21.37566
Sn  2.10100  5.96512 23.52627
Sn  5.49202  2.98016 23.52630
Sn  1.73530  2.97993 24.23119
Sn  5.12634  5.96490 24.23122
Sn  0.59098  5.96488 26.34257
Sn  3.98197  2.98000 26.34257
Sn  0.18103  2.97998 27.04317
Sn  3.57223  5.96494 27.04303
Sn  5.84621  5.96586 29.16756
Sn  2.45532  2.98096 29.16755
Sn  5.46547  2.98388 29.87447
Sn  2.07446  5.96893 29.87451
Sn  4.28416  5.96892 31.99321
Sn  0.89312  2.98390 31.99323
Sn  3.90329  2.98095 32.70016
Sn  0.51237  5.96587 32.70016
Sn  2.78635  5.96494 34.82467
Sn  6.17754  2.98000 34.82455
Sn  2.37662  2.98000 35.52516
Sn  5.76761  5.96488 35.52517
Sn  1.23225  5.96491 37.63649
Sn  4.62329  2.97993 37.63652
Sn  0.86656  2.98016 38.34141
Sn  4.25759  5.96513 38.34144
Sn  6.46661  5.96482 40.49205
Sn  3.07559  2.97982 40.49205
Sn  6.08182  2.97960 41.09464
Sn  2.69077  5.96459 41.09465
Sn  4.85116  5.96471 43.34255
Sn  1.46014  2.97971 43.34255
Sn  4.52553  2.97996 43.97049
Sn  1.13450  5.96496 43.97049
Sn  3.28571  5.96802 46.13158
Sn  6.67675  2.98302 46.13155
Sn  2.84925  2.98110 46.58325
Sn  6.24025  5.96608 46.58324
Sn  6.90043  5.96606 77.15219
Sn  3.50934  2.98110 77.15217
Sn  6.46390  2.98300 77.60390
Sn  3.07288 -0.00197 77.60381
Sn  5.22409  5.96496 79.76493
Sn  1.83306  2.97997 79.76493
Sn  4.89845  2.97971 80.39287
Sn  1.50742  5.96470 80.39285
Sn  3.66783  5.96459 82.64078
Sn  0.27676  2.97960 82.64078
Sn  3.28299  2.97982 83.24338
Sn  6.67404  5.96482 83.24337
Sn  2.10100  5.96512 85.39398
Sn  5.49202  2.98016 85.39401
Sn  1.73530  2.97993 86.09890
Sn  5.12634  5.96490 86.09893
Sn  0.59098  5.96488 88.21028
Sn  3.98197  2.98000 88.21028
Sn  0.18103  2.97998 88.91088
Sn  3.57223  5.96494 88.91074
Sn  5.84621  5.96586 91.03527
Sn  2.45532  2.98096 91.03526
Sn  5.46547  2.98388 91.74218
Sn  2.07446  5.96893 91.74222
Sn  4.28416  5.96892 93.86092
Sn  0.89312  2.98390 93.86094
Sn  3.90329  2.98095 94.56787
Sn  0.51237  5.96587 94.56787
Sn  2.78635  5.96494 96.69238
Sn  6.17754  2.98000 96.69226
Sn  2.37662  2.98000 97.39287
Sn  5.76761  5.96488 97.39288
Sn  1.23225  5.96491 99.50420
Sn  4.62329  2.97993 99.50423
Sn  0.86656  2.98016 100.20912
Sn  4.25759  5.96513 100.20915
Sn  6.46661  5.96482 102.35976
Sn  3.07559  2.97982 102.35976
Sn  6.08182  2.97960 102.96235
Sn  2.69077  5.96459 102.96236
Sn  4.85116  5.96471 105.21026
Sn  1.46014  2.97971 105.21026
Sn  4.52553  2.97996 105.83820
Sn  1.13450  5.96496 105.83820
Sn  3.28571  5.96802 107.99929
Sn  6.67675  2.98302 107.99926
Sn  2.84925  2.98110 108.45096
Sn  6.24025  5.96608 108.45095
Sn  6.90043 11.93606 -46.58323
Sn  3.50934  8.95110 -46.58325
Sn  6.46390  8.95300 -46.13152
Sn  3.07288  5.96803 -46.13161
Sn  5.22409 11.93496 -43.97049
Sn  1.83306  8.94997 -43.97049
Sn  4.89845  8.94971 -43.34255
Sn  1.50742 11.93470 -43.34257
Sn  3.66783 11.93459 -41.09464
Sn  0.27676  8.94960 -41.09464
Sn  3.28299  8.94982 -40.49204
Sn  6.67404 11.93482 -40.49205
Sn  2.10100 11.93512 -38.34144
Sn  5.49202  8.95016 -38.34141
Sn  1.73530  8.94993 -37.63652
Sn  5.12634 11.93490 -37.63649
Sn  0.59098 11.93488 -35.52514
Sn  3.98197  8.95000 -35.52514
Sn  0.18103  8.94998 -34.82454
Sn  3.57223 11.93494 -34.82468
Sn  5.84621 11.93586 -32.70015
Sn  2.45532  8.95096 -32.70016
Sn  5.46547  8.95388 -31.99324
Sn  2.07446 11.93893 -31.99320
Sn  4.28416 11.93892 -29.87450
Sn  0.89312  8.95390 -29.87448
Sn  3.90329  8.95095 -29.16755
Sn  0.51237 11.93587 -29.16755
Sn  2.78635 11.93494 -27.04304
Sn  6.17754  8.95000 -27.04316
Sn  2.37662  8.95000 -26.34255
Sn  5.76761 11.93488 -26.34254
Sn  1.23225 11.93491 -24.23122
Sn  4.62329  8.94993 -24.23119
Sn  0.86656  8.95016 -23.52630
Sn  4.25759 11.93513 -23.52627
Sn  6.46661 11.93482 -21.37566
Sn  3.07559  8.94982 -21.37566
Sn  6.08182  8.94960 -20.77307
Sn  2.69077 11.93459 -20.77306
Sn  4.85116 11.93471 -18.52516
Sn  1.46014  8.94971 -18.52516
Sn  4.52553  8.94996 -17.89722
Sn  1.13450 11.93496 -17.89722
Sn  3.28571 11.93802 -15.73613
Sn  6.67675  8.95302 -15.73616
Sn  2.84925  8.95110 -15.28446
Sn  6.24025 11.93608 -15.28447
Sn  6.90043 11.93606 15.28448
Sn  3.50934  8.95110 15.28446
Sn  6.46390  8.95300 15.73619
Sn  3.07288  5.96803 15.73610
Sn  5.22409 11.93496 17.89722
Sn  1.83306  8.94997 17.89722
Sn  4.89845  8.94971 18.52516
Sn  1.50742 11.93470 18.52514
Sn  3.66783 11.93459 20.77307
Sn  0.27676  8.94960 20.77307
Sn  3.28299  8.94982 21.37567
Sn  6.67404 11.93482 21.37566
Sn  2.10100 11.93512 23.52627
Sn  5.49202  8.95016 23.52630
Sn  1.73530  8.94993 24.23119
Sn  5.12634 11.93490 24.23122
Sn  0.59098 11.93488 26.34257
Sn  3.98197  8.95000 26.34257
Sn  0.18103  8.94998 27.04317
Sn  3.57223 11.93494 27.04303
Sn  5.84621 11.93586 29.16756
Sn  2.45532  8.95096 29.16755
Sn  5.46547  8.95388 29.87447
Sn  2.07446 11.93893 29.87451
Sn  4.28416 11.93892 31.99321
Sn  0.89312  8.95390 31.99323
Sn  3.90329  8.95095 32.70016
Sn  0.51237 11.93587 32.70016
Sn  2.78635 11.93494 34.82467
Sn  6.17754  8.95000 34.82455
Sn  2.37662  8.95000 35.52516
Sn  5.76761 11.93488 35.52517
Sn  1.23225 11.93491 37.63649
Sn  4.62329  8.94993 37.63652
Sn  0.86656  8.95016 38.34141
Sn  4.25759 11.93513 38.34144
Sn  6.46661 11.93482 40.49205
Sn  3.07559  8.94982 40.49205
Sn  6.08182  8.94960 41.09464
Sn  2.69077 11.93459 41.09465
Sn  4.85116 11.93471 43.34255
Sn  1.46014  8.94971 43.34255
Sn  4.52553  8.94996 43.97049
Sn  1.13450 11.93496 43.97049
Sn  3.28571 11.93802 46.13158
Sn  6.67675  8.95302 46.13155
Sn  2.84925  8.95110 46.58325
Sn  6.24025 11.93608 46.58324
Sn  6.90043 11.93606 77.15219
Sn  3.50934  8.95110 77.15217
Sn  6.46390  8.95300 77.60390
Sn  3.07288  5.96803 77.60381
Sn  5.22409 11.93496 79.76493
Sn  1.83306  8.94997 79.76493
Sn  4.89845  8.94971 80.39287
Sn  1.50742 11.93470 80.39285
Sn  3.66783 11.93459 82.64078
Sn  0.27676  8.94960 82.64078
Sn  3.28299  8.94982 83.24338
Sn  6.67404 11.93482 83.24337
Sn  2.10100 11.93512 85.39398
Sn  5.49202  8.95016 85.39401
Sn  1.73530  8.94993 86.09890
Sn  5.12634 11.93490 86.09893
Sn  0.59098 11.93488 88.21028
Sn  3.98197  8.95000 88.21028
Sn  0.18103  8.94998 88.91088
Sn  3.57223 11.93494 88.91074
Sn  5.84621 11.93586 91.03527
Sn  2.45532  8.95096 91.03526
Sn  5.46547  8.95388 91.74218
Sn  2.07446 11.93893 91.74222
Sn  4.28416 11.93892 93.86092
Sn  0.89312  8.95390 93.86094
Sn  3.90329  8.95095 94.56787
Sn  0.51237 11.93587 94.56787
Sn  2.78635 11.93494 96.69238
Sn  6.17754  8.95000 96.69226
Sn  2.37662  8.95000 97.39287
Sn  5.76761 11.93488 97.39288
Sn  1.23225 11.93491 99.50420
Sn  4.62329  8.94993 99.50423
Sn  0.86656  8.95016 100.20912
Sn  4.25759 11.93513 100.20915
Sn  6.46661 11.93482 102.35976
Sn  3.07559  8.94982 102.35976
Sn  6.08182  8.94960 102.96235
Sn  2.69077 11.93459 102.96236
Sn  4.85116 11.93471 105.21026
Sn  1.46014  8.94971 105.21026
Sn  4.52553  8.94996 105.83820
Sn  1.13450 11.93496 105.83820
Sn  3.28571 11.93802 107.99929
Sn  6.67675  8.95302 107.99926
Sn  2.84925  8.95110 108.45096
Sn  6.24025 11.93608 108.45095
Sn 13.68250 -0.00394 -46.58323
Sn 10.29141 -2.98890 -46.58325
Sn 13.24597 -2.98700 -46.13152
Sn  9.85495 -5.97197 -46.13161
Sn 12.00615 -0.00504 -43.97049
Sn  8.61513 -2.99003 -43.97049
Sn 11.68052 -2.99029 -43.34255
Sn  8.28948 -0.00530 -43.34257
Sn 10.44989 -0.00541 -41.09464
Sn  7.05883 -2.99040 -41.09464
Sn 10.06506 -2.99018 -40.49204
Sn 13.45611 -0.00518 -40.49205
Sn  8.88307 -0.00488 -38.34144
Sn 12.27408 -2.98984 -38.34141
Sn  8.51737 -2.99007 -37.63652
Sn 11.90841 -0.00510 -37.63649
Sn  7.37304 -0.00512 -35.52514
Sn 10.76404 -2.99000 -35.52514
Sn  6.96310 -2.99002 -34.82454
Sn 10.35429 -0.00506 -34.82468
Sn 12.62827 -0.00414 -32.70015
Sn  9.23738 -2.98904 -32.70016
Sn 12.24753 -2.98612 -31.99324
Sn  8.85652 -0.00107 -31.99320
Sn 11.06622 -0.00108 -29.87450
Sn  7.67519 -2.98610 -29.87448
Sn 10.68535 -2.98905 -29.16755
Sn  7.29443 -0.00413 -29.16755
Sn  9.56842 -0.00506 -27.04304
Sn 12.95960 -2.99000 -27.04316
Sn  9.15869 -2.99000 -26.34255
Sn 12.54968 -0.00512 -26.34254
Sn  8.01431 -0.00509 -24.23122
Sn 11.40535 -2.99007 -24.23119
Sn  7.64863 -2.98984 -23.52630
Sn 11.03965 -0.00487 -23.52627
Sn 13.24868 -0.00518 -21.37566
Sn  9.85765 -2.99018 -21.37566
Sn 12.86388 -2.99040 -20.77307
Sn  9.47283 -0.00541 -20.77306
Sn 11.63323 -0.00529 -18.52516
Sn  8.24220 -2.99029 -18.52516
Sn 11.30760 -2.99004 -17.89722
Sn  7.91656 -0.00504 -17.89722
Sn 10.06778 -0.00198 -15.73613
Sn 13.45881 -2.98698 -15.73616
Sn  9.63131 -2.98890 -15.28446
Sn 13.02231 -0.00392 -15.28447
Sn 13.68250 -0.00394 15.28448
Sn 10.29141 -2.98890 15.28446
Sn 13.24597 -2.98700 15.73619
Sn  9.85495 -5.97197 15.73610
Sn 12.00615 -0.00504 17.89722
Sn  8.61513 -2.99003 17.89722
Sn 11.68052 -2.99029 18.52516
Sn  8.28948 -0.00530 18.52514
Sn 10.44989 -0.00541 20.77307
Sn  7.05883 -2.99040 20.77307
Sn 10.06506 -2.99018 21.37567
Sn 13.45611 -0.00518 21.37566
Sn  8.88307 -0.00488 23.52627
Sn 12.27408 -2.98984 23.52630
Sn  8.51737 -2.99007 24.23119
Sn 11.90841 -0.00510 24.23122
Sn  7.37304 -0.00512 26.34257
Sn 10.76404 -2.99000 26.34257
Sn  6.96310 -2.99002 27.04317
Sn 10.35429 -0.00506 27.04303
Sn 12.62827 -0.00414 29.16756
Sn  9.23738 -2.98904 29.16755
Sn 12.24753 -2.98612 29.87447
Sn  8.85652 -0.00107 29.87451
Sn 11.06622 -0.00108 31.99321
Sn  7.67519 -2.98610 31.99323
Sn 10.68535 -2.98905 32.70016
Sn  7.29443 -0.00413 32.70016
Sn  9.56842 -0.00506 34.82467
Sn 12.95960 -2.99000 34.82455
Sn  9.15869 -2.99000 35.52516
Sn 12.54968 -0.00512 35.52517
Sn  8.01431 -0.00509 37.63649
Sn 11.40535 -2.99007 37.63652
Sn  7.64863 -2.98984 38.34141
Sn 11.03965 -0.00487 38.34144
Sn 13.24868 -0.00518 40.49205
Sn  9.85765 -2.99018 40.49205
Sn 12.86388 -2.99040 41.09464
Sn  9.47283 -0.00541 41.09465
Sn 11.63323 -0.00529 43.34255
Sn  8.24220 -2.99029 43.34255
Sn 11.30760 -2.99004 43.97049
Sn  7.91656 -0.00504 43.97049
Sn 10.06778 -0.00198 46.13158
Sn 13.45881 -2.98698 46.13155
Sn  9.63131 -2.98890 46.58325
Sn 13.02231 -0.00392 46.58324
Sn 13.68250 -0.00394 77.15219
Sn 10.29141 -2.98890 77.15217
Sn 13.24597 -2.98700 77.60390
Sn  9.85495 -5.97197 77.60381
Sn 12.00615 -0.00504 79.76493
Sn  8.61513 -2.99003 79.76493
Sn 11.68052 -2.99029 80.39287
Sn  8.28948 -0.00530 80.39285
Sn 10.44989 -0.00541 82.64078
Sn  7.05883 -2.99040 82.64078
Sn 10.06506 -2.99018 83.24338
Sn 13.45611 -0.00518 83.24337
Sn  8.88307 -0.00488 85.39398
Sn 12.27408 -2.98984 85.39401
Sn  8.51737 -2.99007 86.09890
Sn 11.90841 -0.00510 86.09893
Sn  7.37304 -0.00512 88.21028
Sn 10.76404 -2.99000 88.21028
Sn  6.96310 -2.99002 88.91088
Sn 10.35429 -0.00506 88.91074
Sn 12.62827 -0.00414 91.03527
Sn  9.23738 -2.98904 91.03526
Sn 12.24753 -2.98612 91.74218
Sn  8.85652 -0.00107 91.74222
Sn 11.06622 -0.00108 93.86092
Sn  7.67519 -2.98610 93.86094
Sn 10.68535 -2.98905 94.56787
Sn  7.29443 -0.00413 94.56787
Sn  9.56842 -0.00506 96.69238
Sn 12.95960 -2.99000 96.69226
Sn  9.15869 -2.99000 97.39287
Sn 12.54968 -0.00512 97.39288
Sn  8.01431 -0.00509 99.50420
Sn 11.40535 -2.99007 99.50423
Sn  7.64863 -2.98984 100.20912
Sn 11.03965 -0.00487 100.20915
Sn 13.24868 -0.00518 102.35976
Sn  9.85765 -2.99018 102.35976
Sn 12.86388 -2.99040 102.96235
Sn  9.47283 -0.00541 102.96236
Sn 11.63323 -0.00529 105.21026
Sn  8.24220 -2.99029 105.21026
Sn 11.30760 -2.99004 105.83820
Sn  7.91656 -0.00504 105.83820
Sn 10.06778 -0.00198 107.99929
Sn 13.45881 -2.98698 107.99926
Sn  9.63131 -2.98890 108.45096
Sn 13.02231 -0.00392 108.45095
Sn 13.68250  5.96606 -46.58323
Sn 10.29141  2.98110 -46.58325
Sn 13.24597  2.98300 -46.13152
Sn  9.85495 -0.00197 -46.13161
Sn 12.00615  5.96496 -43.97049
Sn  8.61513  2.97997 -43.97049
Sn 11.68052  2.97971 -43.34255
Sn  8.28948  5.96470 -43.34257
Sn 10.44989  5.96459 -41.09464
Sn  7.05883  2.97960 -41.09464
Sn 10.06506  2.97982 -40.49204
Sn 13.45611  5.96482 -40.49205
Sn  8.88307  5.96512 -38.34144
Sn 12.27408  2.98016 -38.34141
Sn  8.51737  2.97993 -37.63652
Sn 11.90841  5.96490 -37.63649
Sn  7.37304  5.96488 -35.52514
Sn 10.76404  2.98000 -35.52514
Sn  6.96310  2.97998 -34.82454
Sn 10.35429  5.96494 -34.82468
Sn 12.62827  5.96586 -32.70015
Sn  9.23738  2.98096 -32.70016
Sn 12.24753  2.98388 -31.99324
Sn  8.85652  5.96893 -31.99320
Sn 11.06622  5.96892 -29.87450
Sn  7.67519  2.98390 -29.87448
Sn 10.68535  2.98095 -29.16755
Sn  7.29443  5.96587 -29.16755
Sn  9.56842  5.96494 -27.04304
Sn 12.95960  2.98000 -27.04316
Sn  9.15869  2.98000 -26.34255
Sn 12.54968  5.96488 -26.34254
Sn  8.01431  5.96491 -24.23122
Sn 11.40535  2.97993 -24.23119
Sn  7.64863  2.98016 -23.52630
Sn 11.03965  5.96513 -23.52627
Sn 13.24868  5.96482 -21.37566
Sn  9.85765  2.97982 -21.37566
Sn 12.86388  2.97960 -20.77307
Sn  9.47283  5.96459 -20.77306
Sn 11.63323  5.96471 -18.52516
Sn  8.24220  2.97971 -18.52516
Sn 11.30760  2.97996 -17.89722
Sn  7.91656  5.96496 -17.89722
Sn 10.06778  5.96802 -15.73613
Sn 13.45881  2.98302 -15.73616
Sn  9.63131  2.98110 -15.28446
Sn 13.02231  5.96608 -15.28447
Sn 13.68250  5.96606 15.28448
Sn 10.29141  2.98110 15.28446
Sn 13.24597  2.98300 15.73619
Sn  9.85495 -0.00197 15.73610
Sn 12.00615  5.96496 17.89722
Sn  8.61513  2.97997 17.89722
Sn 11.68052  2.97971 18.52516
Sn  8.28948  5.96470 18.52514
Sn 10.44989  5.96459 20.77307
Sn  7.05883  2.97960 20.77307
Sn 10.06506  2.97982 21.37567
Sn 13.45611  5.96482 21.37566
Sn  8.88307  5.96512 23.52627
Sn 12.27408  2.98016 23.52630
Sn  8.51737  2.97993 24.23119
Sn 11.90841  5.96490 24.23122
Sn  7.37304  5.96488 26.34257
Sn 10.76404  2.98000 26.34257
Sn  6.96310  2.97998 27.04317
Sn 10.35429  5.96494 27.04303
Sn 12.62827  5.96586 29.16756
Sn  9.23738  2.98096 29.16755
Sn 12.24753  2.98388 29.87447
Sn  8.85652  5.96893 29.87451
Sn 11.06622  5.96892 31.99321
Sn  7.67519  2.98390 31.99323
Sn 10.68535  2.98095 32.70016
Sn  7.29443  5.96587 32.70016
Sn  9.56842  5.96494 34.82467
Sn 12.95960  2.98000 34.82455
Sn  9.15869  2.98000 35.52516
Sn 12.54968  5.96488 35.52517
Sn  8.01431  5.96491 37.63649
Sn 11.40535  2.97993 37.63652
Sn  7.64863  2.98016 38.34141
Sn 11.03965  5.96513 38.34144
Sn 13.24868  5.96482 40.49205
Sn  9.85765  2.97982 40.49205
Sn 12.86388  2.97960 41.09464
Sn  9.47283  5.96459 41.09465
Sn 11.63323  5.96471 43.34255
Sn  8.24220  2.97971 43.34255
Sn 11.30760  2.97996 43.97049
Sn  7.91656  5.96496 43.97049
Sn 10.06778  5.96802 46.13158
Sn 13.45881  2.98302 46.13155
Sn  9.63131  2.98110 46.58325
Sn 13.02231  5.96608 46.58324
Sn 13.68250  5.96606 77.15219
Sn 10.29141  2.98110 77.15217
Sn 13.24597  2.98300 77.60390
Sn  9.85495 -0.00197 77.60381
Sn 12.00615  5.96496 79.76493
Sn  8.61513  2.97997 79.76493
Sn 11.68052  2.97971 80.39287
Sn  8.28948  5.96470 80.39285
Sn 10.44989  5.96459 82.64078
Sn  7.05883  2.97960 82.64078
Sn 10.06506  2.97982 83.24338
Sn 13.45611  5.96482 83.24337
Sn  8.88307  5.96512 85.39398
Sn 12.27408  2.98016 85.39401
Sn  8.51737  2.97993 86.09890
Sn 11.90841  5.96490 86.09893
Sn  7.37304  5.96488 88.21028
Sn 10.76404  2.98000 88.21028
Sn  6.96310  2.97998 88.91088
Sn 10.35429  5.96494 88.91074
Sn 12.62827  5.96586 91.03527
Sn  9.23738  2.98096 91.03526
Sn 12.24753  2.98388 91.74218
Sn  8.85652  5.96893 91.74222
Sn 11.06622  5.96892 93.86092
Sn  7.67519  2.98390 93.86094
Sn 10.68535  2.98095 94.56787
Sn  7.29443  5.96587 94.56787
Sn  9.56842  5.96494 96.69238
Sn 12.95960  2.98000 96.69226
Sn  9.15869  2.98000 97.39287
Sn 12.54968  5.96488 97.39288
Sn  8.01431  5.96491 99.50420
Sn 11.40535  2.97993 99.50423
Sn  7.64863  2.98016 100.20912
Sn 11.03965  5.96513 100.20915
Sn 13.24868  5.96482 102.35976
Sn  9.85765  2.97982 102.35976
Sn 12.86388  2.97960 102.96235
Sn  9.47283  5.96459 102.96236
Sn 11.63323  5.96471 105.21026
Sn  8.24220  2.97971 105.21026
Sn 11.30760  2.97996 105.83820
Sn  7.91656  5.96496 105.83820
Sn 10.06778  5.96802 107.99929
Sn 13.45881  2.98302 107.99926
Sn  9.63131  2.98110 108.45096
Sn 13.02231  5.96608 108.45095
Sn 13.68250 11.93606 -46.58323
Sn 10.29141  8.95110 -46.58325
Sn 13.24597  8.95300 -46.13152
Sn  9.85495  5.96803 -46.13161
Sn 12.00615 11.93496 -43.97049
Sn  8.61513  8.94997 -43.97049
Sn 11.68052  8.94971 -43.34255
Sn  8.28948 11.93470 -43.34257
Sn 10.44989 11.93459 -41.09464
Sn  7.05883  8.94960 -41.09464
Sn 10.06506  8.94982 -40.49204
Sn 13.45611 11.93482 -40.49205
Sn  8.88307 11.93512 -38.34144
Sn 12.27408  8.95016 -38.34141
Sn  8.51737  8.94993 -37.63652
Sn 11.90841 11.93490 -37.63649
Sn  7.37304 11.93488 -35.52514
Sn 10.76404  8.95000 -35.52514
Sn  6.96310  8.94998 -34.82454
Sn 10.35429 11.93494 -34.82468
Sn 12.62827 11.93586 -32.70015
Sn  9.23738  8.95096 -32.70016
Sn 12.24753  8.95388 -31.99324
Sn  8.85652 11.93893 -31.99320
Sn 11.06622 11.93892 -29.87450
Sn  7.67519  8.95390 -29.87448
Sn 10.68535  8.95095 -29.16755
Sn  7.29443 11.93587 -29.16755
Sn  9.56842 11.93494 -27.04304
Sn 12.95960  8.95000 -27.04316
Sn  9.15869  8.95000 -26.34255
Sn 12.54968 11.93488 -26.34254
Sn  8.01431 11.93491 -24.23122
Sn 11.40535  8.94993 -24.23119
Sn  7.64863  8.95016 -23.52630
Sn 11.03965 11.93513 -23.52627
Sn 13.24868 11.93482 -21.37566
Sn  9.85765  8.94982 -21.37566
Sn 12.86388  8.94960 -20.77307
Sn  9.47283 11.93459 -20.77306
Sn 11.63323 11.93471 -18.52516
Sn  8.24220  8.94971 -18.52516
Sn 11.30760  8.94996 -17.89722
Sn  7.91656 11.93496 -17.89722
Sn 10.06778 11.93802 -15.73613
Sn 13.45881  8.95302 -15.73616
Sn  9.63131  8.95110 -15.28446
Sn 13.02231 11.93608 -15.28447
Sn 13.68250 11.93606 15.28448
Sn 10.29141  8.95110 15.28446
Sn 13.24597  8.95300 15.73619
Sn  9.85495  5.96803 15.73610
Sn 12.00615 11.93496 17.89722
Sn  8.61513  8.94997 17.89722
Sn 11.68052  8.94971 18.52516
Sn  8.28948 11.93470 18.52514
Sn 10.44989 11.93459 20.77307
Sn  7.05883  8.94960 20.77307
Sn 10.06506  8.94982 21.37567
Sn 13.45611 11.93482 21.37566
Sn  8.88307 11.93512 23.52627
Sn 12.27408  8.95016 23.52630
Sn  8.51737  8.94993 24.23119
Sn 11.90841 11.93490 24.23122
Sn  7.37304 11.93488 26.34257
Sn 10.76404  8.95000 26.34257
Sn  6.96310  8.94998 27.04317
Sn 10.35429 11.93494 27.04303
Sn 12.62827 11.93586 29.16756
Sn  9.23738  8.95096 29.16755
Sn 12.24753  8.95388 29.87447
Sn  8.85652 11.93893 29.87451
Sn 11.06622 11.93892 31.99321
Sn  7.67519  8.95390 31.99323
Sn 10.68535  8.95095 32.70016
Sn  7.29443 11.93587 32.70016
Sn  9.56842 11.93494 34.82467
Sn 12.95960  8.95000 34.82455
Sn  9.15869  8.95000 35.52516
Sn 12.54968 11.93488 35.52517
Sn  8.01431 11.93491 37.63649
Sn 11.40535  8.94993 37.63652
Sn  7.64863  8.95016 38.34141
Sn 11.03965 11.93513 38.34144
Sn 13.24868 11.93482 40.49205
Sn  9.85765  8.94982 40.49205
Sn 12.86388  8.94960 41.09464
Sn  9.47283 11.93459 41.09465
Sn 11.63323 11.93471 43.34255
Sn  8.24220  8.94971 43.34255
Sn 11.30760  8.94996 43.97049
Sn  7.91656 11.93496 43.97049
Sn 10.06778 11.93802 46.13158
Sn 13.45881  8.95302 46.13155
Sn  9.63131  8.95110 46.58325
Sn 13.02231 11.93608 46.58324
Sn 13.68250 11.93606 77.15219
Sn 10.29141  8.95110 77.15217
Sn 13.24597  8.95300 77.60390
Sn  9.85495  5.96803 77.60381
Sn 12.00615 11.93496 79.76493
Sn  8.61513  8.94997 79.76493
Sn 11.68052  8.94971 80.39287
Sn  8.28948 11.93470 80.39285
Sn 10.44989 11.93459 82.64078
Sn  7.05883  8.94960 82.64078
Sn 10.06506  8.94982 83.24338
Sn 13.45611 11.93482 83.24337
Sn  8.88307 11.93512 85.39398
Sn 12.27408  8.95016 85.39401
Sn  8.51737  8.94993 86.09890
Sn 11.90841 11.93490 86.09893
Sn  7.37304 11.93488 88.21028
Sn 10.76404  8.95000 88.21028
Sn  6.96310  8.94998 88.91088
Sn 10.35429 11.93494 88.91074
Sn 12.62827 11.93586 91.03527
Sn  9.23738  8.95096 91.03526
Sn 12.24753  8.95388 91.74218
Sn  8.85652 11.93893 91.74222
Sn 11.06622 11.93892 93.86092
Sn  7.67519  8.95390 93.86094
Sn 10.68535  8.95095 94.56787
Sn  7.29443 11.93587 94.56787
Sn  9.56842 11.93494 96.69238
Sn 12.95960  8.95000 96.69226
Sn  9.15869  8.95000 97.39287
Sn 12.54968 11.93488 97.39288
Sn  8.01431 11.93491 99.50420
Sn 11.40535  8.94993 99.50423
Sn  7.64863  8.95016 100.20912
Sn 11.03965 11.93513 100.20915
Sn 13.24868 11.93482 102.35976
Sn  9.85765  8.94982 102.35976
Sn 12.86388  8.94960 102.96235
Sn  9.47283 11.93459 102.96236
Sn 11.63323 11.93471 105.21026
Sn  8.24220  8.94971 105.21026
Sn 11.30760  8.94996 105.83820
Sn  7.91656 11.93496 105.83820
Sn 10.06778 11.93802 107.99929
Sn 13.45881  8.95302 107.99926
Sn  9.63131  8.95110 108.45096
Sn 13.02231 11.93608 108.45095
