48 

Sn    6.90043   5.96606  15.28448  -0.000218754008820   0.000049586323395  -0.000055466272281
Sn    3.50934   2.98110  15.28446  -0.000209483830325   0.000051790136737  -0.000060311955285
Sn    6.46390   2.98300  15.73619  -0.000139401916765  -0.000089006263008   0.000233983782507
Sn    3.07288  -0.00197  15.73610  -0.000158849069295  -0.000092405683534   0.000249049080138
Sn    5.22409   5.96496  17.89722  -0.000195335955968  -0.000004406027088   0.000015665553255
Sn    1.83306   2.97997  17.89722  -0.000194206098929  -0.000000149014197   0.000013194350401
Sn    4.89845   2.97971  18.52516  -0.000011763194308  -0.000032217247493   0.000009895184711
Sn    1.50742   5.96470  18.52514  -0.000013260017260  -0.000034666551670   0.000009681673345
Sn    3.66783   5.96459  20.77307   0.000065665294133  -0.000005741903847  -0.000020234492309
Sn    0.27676   2.97960  20.77307   0.000060549957907  -0.000005187880001  -0.000023508496157
Sn    3.28299   2.97982  21.37567   0.000022981688348   0.000006511788736   0.000076807571270
Sn    6.67404   5.96482  21.37566   0.000025162042169   0.000004999155883   0.000078496628446
Sn    2.10100   5.96512  23.52627   0.000001552809666   0.000060611444393   0.000097776663194
Sn    5.49202   2.98016  23.52630  -0.000004155764905   0.000086609293971   0.000107514819117
Sn    1.73530   2.97993  24.23119  -0.000125850972101  -0.000018490559387   0.000058072657946
Sn    5.12634   5.96490  24.23122  -0.000131871577328  -0.000025780580563   0.000059376808751
Sn    0.59098   5.96488  26.34257   0.000196470702374  -0.000027575250260   0.000034090853741
Sn    3.98197   2.98000  26.34257   0.000195254075901  -0.000001764977394   0.000032810632919
Sn    0.18103   2.97998  27.04317  -0.000222087575933  -0.000001872119853  -0.000112670026391
Sn    3.57223   5.96494  27.04303  -0.000181752967491  -0.000017212546386  -0.000088682779230
Sn    5.84621   5.96586  29.16756   0.000034748375842   0.000025776145046   0.000029948035813
Sn    2.45532   2.98096  29.16755   0.000096359393084   0.000060015853552   0.000039776442458
Sn    5.46547   2.98388  29.87447   0.000103851574843  -0.000072952515402  -0.000071775373372
Sn    2.07446   5.96893  29.87451   0.000107890706065  -0.000067817043583  -0.000060856650439
Sn    4.28416   5.96892  31.99321  -0.000105114041814  -0.000067359289631   0.000061366295302
Sn    0.89312   2.98390  31.99323  -0.000103025453853  -0.000069251526917   0.000069564044098
Sn    3.90329   2.98095  32.70016  -0.000088122849164   0.000057031007815  -0.000038334699073
Sn    0.51237   5.96587  32.70016  -0.000038617965166   0.000027280299607  -0.000029759421122
Sn    2.78635   5.96494  34.82467   0.000178111167127  -0.000017513798704   0.000088745472359
Sn    6.17754   2.98000  34.82455   0.000218729190963   0.000000319859615   0.000109957300740
Sn    2.37662   2.98000  35.52516  -0.000193012768418  -0.000000987986195  -0.000029291843243
Sn    5.76761   5.96488  35.52517  -0.000194413425017  -0.000030122032285  -0.000029204168018
Sn    1.23225   5.96491  37.63649   0.000131582166522  -0.000025140531200  -0.000059588330975
Sn    4.62329   2.97993  37.63652   0.000126336011988  -0.000019465191103  -0.000059201487370
Sn    0.86656   2.98016  38.34141   0.000001315545590   0.000084510250577  -0.000107837929367
Sn    4.25759   5.96513  38.34144   0.000000715593841   0.000066890096989  -0.000096795111964
Sn    6.46661   5.96482  40.49205  -0.000024298483381   0.000005405998398  -0.000077851808124
Sn    3.07559   2.97982  40.49205  -0.000023815317822   0.000006015701337  -0.000077438612492
Sn    6.08182   2.97960  41.09464  -0.000062593006142  -0.000005378935794   0.000020835305121
Sn    2.69077   5.96459  41.09465  -0.000064706294443  -0.000004979660451   0.000022258842640
Sn    4.85116   5.96471  43.34255   0.000012552098627  -0.000033434183880  -0.000009951990179
Sn    1.46014   2.97971  43.34255   0.000012253459149  -0.000033048823617  -0.000009843612869
Sn    4.52553   2.97996  43.97049   0.000194817649011  -0.000003086749081  -0.000013855257000
Sn    1.13450   5.96496  43.97049   0.000195199326851  -0.000002853025641  -0.000014321837396
Sn    3.28571   5.96802  46.13158   0.000151730401382  -0.000092087386130  -0.000242966530527
Sn    6.67675   2.98302  46.13155   0.000144719611446  -0.000090593089892  -0.000238575798335
Sn    2.84925   2.98110  46.58325   0.000209308335194   0.000052517183340   0.000060136029449
Sn    6.24025   5.96608  46.58324   0.000214327955823   0.000049994279053   0.000057768136913
