1296

Sn -8.48329 -3.18776 -63.50896
Sn -4.09982 -1.65829 -63.51883
Sn -2.06522 -0.82247 -61.44532
Sn -6.28866 -2.37632 -61.55588
Sn -4.19492 -3.19235 -59.31627
Sn -8.36517 -1.65302 -59.32002
Sn -6.27788 -0.81966 -57.20308
Sn -2.05506 -2.38057 -57.22539
Sn -8.38897 -3.20389 -55.12297
Sn -4.15817 -1.64381 -55.12339
Sn -2.05198 -0.81569 -53.00087
Sn -6.27429 -2.37632 -53.00618
Sn -4.17021 -3.20713 -50.90875
Sn -8.38386 -1.64626 -50.90258
Sn -6.27212 -0.81892 -48.78019
Sn -2.06912 -2.37006 -48.80042
Sn -8.41975 -3.21592 -46.69236
Sn -4.16237 -1.64917 -46.65606
Sn -2.05719 -0.81665 -44.51123
Sn -6.34957 -2.36436 -44.58858
Sn -4.26640 -3.21401 -42.48633
Sn -8.38709 -1.64697 -42.39237
Sn -6.27746 -0.81342 -40.27193
Sn -2.16346 -2.37396 -40.38105
Sn -8.49660 -3.20830 -38.27529
Sn -4.16954 -1.64837 -38.16559
Sn -2.06583 -0.80802 -36.06128
Sn -6.38823 -2.37875 -36.15376
Sn -4.27398 -3.20636 -34.03728
Sn -8.42995 -1.65732 -33.95674
Sn -6.35569 -0.80691 -31.85474
Sn -2.17033 -2.37332 -31.88968
Sn -8.50263 -3.20353 -29.76606
Sn -4.26836 -1.65328 -29.74731
Sn -2.16379 -0.81386 -27.63887
Sn -6.39124 -2.37581 -27.64363
Sn -4.28034 -3.20644 -25.54543
Sn -8.50101 -1.64659 -25.54007
Sn -6.38681 -0.81849 -23.42372
Sn -2.17385 -2.37885 -23.42361
Sn -8.49885 -3.20400 -21.34256
Sn -4.27725 -1.64397 -21.32155
Sn -2.14213 -0.82466 -19.22715
Sn -6.41920 -2.36476 -19.22663
Sn -4.27707 -3.20387 -17.10799
Sn -8.50048 -1.64974 -16.97932
Sn -6.29313 -0.83436 -15.03636
Sn -2.27228 -2.35492 -15.02435
Sn -8.48329 -3.18776 15.03746
Sn -4.09982 -1.65829 15.02759
Sn -2.06522 -0.82247 17.10110
Sn -6.28866 -2.37632 16.99054
Sn -4.19492 -3.19235 19.23014
Sn -8.36517 -1.65302 19.22640
Sn -6.27788 -0.81966 21.34334
Sn -2.05506 -2.38057 21.32103
Sn -8.38897 -3.20389 23.42345
Sn -4.15817 -1.64381 23.42303
Sn -2.05198 -0.81569 25.54555
Sn -6.27429 -2.37632 25.54023
Sn -4.17021 -3.20713 27.63767
Sn -8.38386 -1.64626 27.64384
Sn -6.27212 -0.81892 29.76623
Sn -2.06912 -2.37006 29.74600
Sn -8.41975 -3.21592 31.85406
Sn -4.16237 -1.64917 31.89036
Sn -2.05719 -0.81665 34.03518
Sn -6.34957 -2.36436 33.95783
Sn -4.26640 -3.21401 36.06009
Sn -8.38709 -1.64697 36.15405
Sn -6.27746 -0.81342 38.27449
Sn -2.16346 -2.37396 38.16536
Sn -8.49660 -3.20830 40.27112
Sn -4.16954 -1.64837 40.38083
Sn -2.06583 -0.80802 42.48514
Sn -6.38823 -2.37875 42.39266
Sn -4.27398 -3.20636 44.50913
Sn -8.42995 -1.65732 44.58968
Sn -6.35569 -0.80691 46.69168
Sn -2.17033 -2.37332 46.65674
Sn -8.50263 -3.20353 48.78036
Sn -4.26836 -1.65328 48.79911
Sn -2.16379 -0.81386 50.90755
Sn -6.39124 -2.37581 50.90278
Sn -4.28034 -3.20644 53.00098
Sn -8.50101 -1.64659 53.00634
Sn -6.38681 -0.81849 55.12270
Sn -2.17385 -2.37885 55.12280
Sn -8.49885 -3.20400 57.20386
Sn -4.27725 -1.64397 57.22486
Sn -2.14213 -0.82466 59.31927
Sn -6.41920 -2.36476 59.31979
Sn -4.27707 -3.20387 61.43842
Sn -8.50048 -1.64974 61.56710
Sn -6.29313 -0.83436 63.51006
Sn -2.27228 -2.35492 63.52206
Sn -8.48329 -3.18776 93.58388
Sn -4.09982 -1.65829 93.57400
Sn -2.06522 -0.82247 95.64751
Sn -6.28866 -2.37632 95.53695
Sn -4.19492 -3.19235 97.77656
Sn -8.36517 -1.65302 97.77282
Sn -6.27788 -0.81966 99.88976
Sn -2.05506 -2.38057 99.86745
Sn -8.38897 -3.20389 101.96987
Sn -4.15817 -1.64381 101.96945
Sn -2.05198 -0.81569 104.09197
Sn -6.27429 -2.37632 104.08665
Sn -4.17021 -3.20713 106.18408
Sn -8.38386 -1.64626 106.19025
Sn -6.27212 -0.81892 108.31265
Sn -2.06912 -2.37006 108.29241
Sn -8.41975 -3.21592 110.40047
Sn -4.16237 -1.64917 110.43678
Sn -2.05719 -0.81665 112.58160
Sn -6.34957 -2.36436 112.50425
Sn -4.26640 -3.21401 114.60650
Sn -8.38709 -1.64697 114.70046
Sn -6.27746 -0.81342 116.82090
Sn -2.16346 -2.37396 116.71178
Sn -8.49660 -3.20830 118.81754
Sn -4.16954 -1.64837 118.92724
Sn -2.06583 -0.80802 121.03156
Sn -6.38823 -2.37875 120.93907
Sn -4.27398 -3.20636 123.05555
Sn -8.42995 -1.65732 123.13609
Sn -6.35569 -0.80691 125.23810
Sn -2.17033 -2.37332 125.20315
Sn -8.50263 -3.20353 127.32677
Sn -4.26836 -1.65328 127.34552
Sn -2.16379 -0.81386 129.45397
Sn -6.39124 -2.37581 129.44920
Sn -4.28034 -3.20644 131.54740
Sn -8.50101 -1.64659 131.55276
Sn -6.38681 -0.81849 133.66911
Sn -2.17385 -2.37885 133.66922
Sn -8.49885 -3.20400 135.75027
Sn -4.27725 -1.64397 135.77128
Sn -2.14213 -0.82466 137.86568
Sn -6.41920 -2.36476 137.86620
Sn -4.27707 -3.20387 139.98484
Sn -8.50048 -1.64974 140.11352
Sn -6.29313 -0.83436 142.05647
Sn -2.27228 -2.35492 142.06848
Sn -8.48329  0.03024 -63.50896
Sn -4.09982  1.55971 -63.51883
Sn -2.06522  2.39553 -61.44532
Sn -6.28866  0.84168 -61.55588
Sn -4.19492  0.02565 -59.31627
Sn -8.36517  1.56498 -59.32002
Sn -6.27788  2.39834 -57.20308
Sn -2.05506  0.83743 -57.22539
Sn -8.38897  0.01411 -55.12297
Sn -4.15817  1.57419 -55.12339
Sn -2.05198  2.40231 -53.00087
Sn -6.27429  0.84168 -53.00618
Sn -4.17021  0.01087 -50.90875
Sn -8.38386  1.57174 -50.90258
Sn -6.27212  2.39908 -48.78019
Sn -2.06912  0.84794 -48.80042
Sn -8.41975  0.00208 -46.69236
Sn -4.16237  1.56883 -46.65606
Sn -2.05719  2.40135 -44.51123
Sn -6.34957  0.85364 -44.58858
Sn -4.26640  0.00399 -42.48633
Sn -8.38709  1.57103 -42.39237
Sn -6.27746  2.40458 -40.27193
Sn -2.16346  0.84404 -40.38105
Sn -8.49660  0.00970 -38.27529
Sn -4.16954  1.56963 -38.16559
Sn -2.06583  2.40998 -36.06128
Sn -6.38823  0.83925 -36.15376
Sn -4.27398  0.01164 -34.03728
Sn -8.42995  1.56068 -33.95674
Sn -6.35569  2.41109 -31.85474
Sn -2.17033  0.84468 -31.88968
Sn -8.50263  0.01447 -29.76606
Sn -4.26836  1.56472 -29.74731
Sn -2.16379  2.40414 -27.63887
Sn -6.39124  0.84219 -27.64363
Sn -4.28034  0.01156 -25.54543
Sn -8.50101  1.57141 -25.54007
Sn -6.38681  2.39951 -23.42372
Sn -2.17385  0.83915 -23.42361
Sn -8.49885  0.01400 -21.34256
Sn -4.27725  1.57403 -21.32155
Sn -2.14213  2.39334 -19.22715
Sn -6.41920  0.85324 -19.22663
Sn -4.27707  0.01413 -17.10799
Sn -8.50048  1.56826 -16.97932
Sn -6.29313  2.38364 -15.03636
Sn -2.27228  0.86308 -15.02435
Sn -8.48329  0.03024 15.03746
Sn -4.09982  1.55971 15.02759
Sn -2.06522  2.39553 17.10110
Sn -6.28866  0.84168 16.99054
Sn -4.19492  0.02565 19.23014
Sn -8.36517  1.56498 19.22640
Sn -6.27788  2.39834 21.34334
Sn -2.05506  0.83743 21.32103
Sn -8.38897  0.01411 23.42345
Sn -4.15817  1.57419 23.42303
Sn -2.05198  2.40231 25.54555
Sn -6.27429  0.84168 25.54023
Sn -4.17021  0.01087 27.63767
Sn -8.38386  1.57174 27.64384
Sn -6.27212  2.39908 29.76623
Sn -2.06912  0.84794 29.74600
Sn -8.41975  0.00208 31.85406
Sn -4.16237  1.56883 31.89036
Sn -2.05719  2.40135 34.03518
Sn -6.34957  0.85364 33.95783
Sn -4.26640  0.00399 36.06009
Sn -8.38709  1.57103 36.15405
Sn -6.27746  2.40458 38.27449
Sn -2.16346  0.84404 38.16536
Sn -8.49660  0.00970 40.27112
Sn -4.16954  1.56963 40.38083
Sn -2.06583  2.40998 42.48514
Sn -6.38823  0.83925 42.39266
Sn -4.27398  0.01164 44.50913
Sn -8.42995  1.56068 44.58968
Sn -6.35569  2.41109 46.69168
Sn -2.17033  0.84468 46.65674
Sn -8.50263  0.01447 48.78036
Sn -4.26836  1.56472 48.79911
Sn -2.16379  2.40414 50.90755
Sn -6.39124  0.84219 50.90278
Sn -4.28034  0.01156 53.00098
Sn -8.50101  1.57141 53.00634
Sn -6.38681  2.39951 55.12270
Sn -2.17385  0.83915 55.12280
Sn -8.49885  0.01400 57.20386
Sn -4.27725  1.57403 57.22486
Sn -2.14213  2.39334 59.31927
Sn -6.41920  0.85324 59.31979
Sn -4.27707  0.01413 61.43842
Sn -8.50048  1.56826 61.56710
Sn -6.29313  2.38364 63.51006
Sn -2.27228  0.86308 63.52206
Sn -8.48329  0.03024 93.58388
Sn -4.09982  1.55971 93.57400
Sn -2.06522  2.39553 95.64751
Sn -6.28866  0.84168 95.53695
Sn -4.19492  0.02565 97.77656
Sn -8.36517  1.56498 97.77282
Sn -6.27788  2.39834 99.88976
Sn -2.05506  0.83743 99.86745
Sn -8.38897  0.01411 101.96987
Sn -4.15817  1.57419 101.96945
Sn -2.05198  2.40231 104.09197
Sn -6.27429  0.84168 104.08665
Sn -4.17021  0.01087 106.18408
Sn -8.38386  1.57174 106.19025
Sn -6.27212  2.39908 108.31265
Sn -2.06912  0.84794 108.29241
Sn -8.41975  0.00208 110.40047
Sn -4.16237  1.56883 110.43678
Sn -2.05719  2.40135 112.58160
Sn -6.34957  0.85364 112.50425
Sn -4.26640  0.00399 114.60650
Sn -8.38709  1.57103 114.70046
Sn -6.27746  2.40458 116.82090
Sn -2.16346  0.84404 116.71178
Sn -8.49660  0.00970 118.81754
Sn -4.16954  1.56963 118.92724
Sn -2.06583  2.40998 121.03156
Sn -6.38823  0.83925 120.93907
Sn -4.27398  0.01164 123.05555
Sn -8.42995  1.56068 123.13609
Sn -6.35569  2.41109 125.23810
Sn -2.17033  0.84468 125.20315
Sn -8.50263  0.01447 127.32677
Sn -4.26836  1.56472 127.34552
Sn -2.16379  2.40414 129.45397
Sn -6.39124  0.84219 129.44920
Sn -4.28034  0.01156 131.54740
Sn -8.50101  1.57141 131.55276
Sn -6.38681  2.39951 133.66911
Sn -2.17385  0.83915 133.66922
Sn -8.49885  0.01400 135.75027
Sn -4.27725  1.57403 135.77128
Sn -2.14213  2.39334 137.86568
Sn -6.41920  0.85324 137.86620
Sn -4.27707  0.01413 139.98484
Sn -8.50048  1.56826 140.11352
Sn -6.29313  2.38364 142.05647
Sn -2.27228  0.86308 142.06848
Sn -8.48329  3.24824 -63.50896
Sn -4.09982  4.77771 -63.51883
Sn -2.06522  5.61353 -61.44532
Sn -6.28866  4.05968 -61.55588
Sn -4.19492  3.24365 -59.31627
Sn -8.36517  4.78298 -59.32002
Sn -6.27788  5.61634 -57.20308
Sn -2.05506  4.05543 -57.22539
Sn -8.38897  3.23211 -55.12297
Sn -4.15817  4.79219 -55.12339
Sn -2.05198  5.62031 -53.00087
Sn -6.27429  4.05968 -53.00618
Sn -4.17021  3.22887 -50.90875
Sn -8.38386  4.78974 -50.90258
Sn -6.27212  5.61708 -48.78019
Sn -2.06912  4.06594 -48.80042
Sn -8.41975  3.22008 -46.69236
Sn -4.16237  4.78683 -46.65606
Sn -2.05719  5.61935 -44.51123
Sn -6.34957  4.07164 -44.58858
Sn -4.26640  3.22199 -42.48633
Sn -8.38709  4.78903 -42.39237
Sn -6.27746  5.62258 -40.27193
Sn -2.16346  4.06204 -40.38105
Sn -8.49660  3.22770 -38.27529
Sn -4.16954  4.78763 -38.16559
Sn -2.06583  5.62798 -36.06128
Sn -6.38823  4.05725 -36.15376
Sn -4.27398  3.22964 -34.03728
Sn -8.42995  4.77868 -33.95674
Sn -6.35569  5.62909 -31.85474
Sn -2.17033  4.06268 -31.88968
Sn -8.50263  3.23247 -29.76606
Sn -4.26836  4.78272 -29.74731
Sn -2.16379  5.62214 -27.63887
Sn -6.39124  4.06019 -27.64363
Sn -4.28034  3.22956 -25.54543
Sn -8.50101  4.78941 -25.54007
Sn -6.38681  5.61751 -23.42372
Sn -2.17385  4.05715 -23.42361
Sn -8.49885  3.23200 -21.34256
Sn -4.27725  4.79203 -21.32155
Sn -2.14213  5.61134 -19.22715
Sn -6.41920  4.07124 -19.22663
Sn -4.27707  3.23213 -17.10799
Sn -8.50048  4.78626 -16.97932
Sn -6.29313  5.60164 -15.03636
Sn -2.27228  4.08108 -15.02435
Sn -8.48329  3.24824 15.03746
Sn -4.09982  4.77771 15.02759
Sn -2.06522  5.61353 17.10110
Sn -6.28866  4.05968 16.99054
Sn -4.19492  3.24365 19.23014
Sn -8.36517  4.78298 19.22640
Sn -6.27788  5.61634 21.34334
Sn -2.05506  4.05543 21.32103
Sn -8.38897  3.23211 23.42345
Sn -4.15817  4.79219 23.42303
Sn -2.05198  5.62031 25.54555
Sn -6.27429  4.05968 25.54023
Sn -4.17021  3.22887 27.63767
Sn -8.38386  4.78974 27.64384
Sn -6.27212  5.61708 29.76623
Sn -2.06912  4.06594 29.74600
Sn -8.41975  3.22008 31.85406
Sn -4.16237  4.78683 31.89036
Sn -2.05719  5.61935 34.03518
Sn -6.34957  4.07164 33.95783
Sn -4.26640  3.22199 36.06009
Sn -8.38709  4.78903 36.15405
Sn -6.27746  5.62258 38.27449
Sn -2.16346  4.06204 38.16536
Sn -8.49660  3.22770 40.27112
Sn -4.16954  4.78763 40.38083
Sn -2.06583  5.62798 42.48514
Sn -6.38823  4.05725 42.39266
Sn -4.27398  3.22964 44.50913
Sn -8.42995  4.77868 44.58968
Sn -6.35569  5.62909 46.69168
Sn -2.17033  4.06268 46.65674
Sn -8.50263  3.23247 48.78036
Sn -4.26836  4.78272 48.79911
Sn -2.16379  5.62214 50.90755
Sn -6.39124  4.06019 50.90278
Sn -4.28034  3.22956 53.00098
Sn -8.50101  4.78941 53.00634
Sn -6.38681  5.61751 55.12270
Sn -2.17385  4.05715 55.12280
Sn -8.49885  3.23200 57.20386
Sn -4.27725  4.79203 57.22486
Sn -2.14213  5.61134 59.31927
Sn -6.41920  4.07124 59.31979
Sn -4.27707  3.23213 61.43842
Sn -8.50048  4.78626 61.56710
Sn -6.29313  5.60164 63.51006
Sn -2.27228  4.08108 63.52206
Sn -8.48329  3.24824 93.58388
Sn -4.09982  4.77771 93.57400
Sn -2.06522  5.61353 95.64751
Sn -6.28866  4.05968 95.53695
Sn -4.19492  3.24365 97.77656
Sn -8.36517  4.78298 97.77282
Sn -6.27788  5.61634 99.88976
Sn -2.05506  4.05543 99.86745
Sn -8.38897  3.23211 101.96987
Sn -4.15817  4.79219 101.96945
Sn -2.05198  5.62031 104.09197
Sn -6.27429  4.05968 104.08665
Sn -4.17021  3.22887 106.18408
Sn -8.38386  4.78974 106.19025
Sn -6.27212  5.61708 108.31265
Sn -2.06912  4.06594 108.29241
Sn -8.41975  3.22008 110.40047
Sn -4.16237  4.78683 110.43678
Sn -2.05719  5.61935 112.58160
Sn -6.34957  4.07164 112.50425
Sn -4.26640  3.22199 114.60650
Sn -8.38709  4.78903 114.70046
Sn -6.27746  5.62258 116.82090
Sn -2.16346  4.06204 116.71178
Sn -8.49660  3.22770 118.81754
Sn -4.16954  4.78763 118.92724
Sn -2.06583  5.62798 121.03156
Sn -6.38823  4.05725 120.93907
Sn -4.27398  3.22964 123.05555
Sn -8.42995  4.77868 123.13609
Sn -6.35569  5.62909 125.23810
Sn -2.17033  4.06268 125.20315
Sn -8.50263  3.23247 127.32677
Sn -4.26836  4.78272 127.34552
Sn -2.16379  5.62214 129.45397
Sn -6.39124  4.06019 129.44920
Sn -4.28034  3.22956 131.54740
Sn -8.50101  4.78941 131.55276
Sn -6.38681  5.61751 133.66911
Sn -2.17385  4.05715 133.66922
Sn -8.49885  3.23200 135.75027
Sn -4.27725  4.79203 135.77128
Sn -2.14213  5.61134 137.86568
Sn -6.41920  4.07124 137.86620
Sn -4.27707  3.23213 139.98484
Sn -8.50048  4.78626 140.11352
Sn -6.29313  5.60164 142.05647
Sn -2.27228  4.08108 142.06848
Sn -0.04043 -3.18776 -63.50896
Sn  4.34303 -1.65829 -63.51883
Sn  6.37763 -0.82247 -61.44532
Sn  2.15419 -2.37632 -61.55588
Sn  4.24793 -3.19235 -59.31627
Sn  0.07769 -1.65302 -59.32002
Sn  2.16497 -0.81966 -57.20308
Sn  6.38779 -2.38057 -57.22539
Sn  0.05388 -3.20389 -55.12297
Sn  4.28469 -1.64381 -55.12339
Sn  6.39087 -0.81569 -53.00087
Sn  2.16856 -2.37632 -53.00618
Sn  4.27264 -3.20713 -50.90875
Sn  0.05900 -1.64626 -50.90258
Sn  2.17074 -0.81892 -48.78019
Sn  6.37374 -2.37006 -48.80042
Sn  0.02311 -3.21592 -46.69236
Sn  4.28048 -1.64917 -46.65606
Sn  6.38567 -0.81665 -44.51123
Sn  2.09328 -2.36436 -44.58858
Sn  4.17646 -3.21401 -42.48633
Sn  0.05576 -1.64697 -42.39237
Sn  2.16539 -0.81342 -40.27193
Sn  6.27939 -2.37396 -40.38105
Sn -0.05375 -3.20830 -38.27529
Sn  4.27332 -1.64837 -38.16559
Sn  6.37702 -0.80802 -36.06128
Sn  2.05462 -2.37875 -36.15376
Sn  4.16887 -3.20636 -34.03728
Sn  0.01291 -1.65732 -33.95674
Sn  2.08717 -0.80691 -31.85474
Sn  6.27252 -2.37332 -31.88968
Sn -0.05978 -3.20353 -29.76606
Sn  4.17449 -1.65328 -29.74731
Sn  6.27907 -0.81386 -27.63887
Sn  2.05161 -2.37581 -27.64363
Sn  4.16252 -3.20644 -25.54543
Sn -0.05815 -1.64659 -25.54007
Sn  2.05605 -0.81849 -23.42372
Sn  6.26900 -2.37885 -23.42361
Sn -0.05600 -3.20400 -21.34256
Sn  4.16561 -1.64397 -21.32155
Sn  6.30073 -0.82466 -19.22715
Sn  2.02366 -2.36476 -19.22663
Sn  4.16579 -3.20387 -17.10799
Sn -0.05762 -1.64974 -16.97932
Sn  2.14973 -0.83436 -15.03636
Sn  6.17058 -2.35492 -15.02435
Sn -0.04043 -3.18776 15.03746
Sn  4.34303 -1.65829 15.02759
Sn  6.37763 -0.82247 17.10110
Sn  2.15419 -2.37632 16.99054
Sn  4.24793 -3.19235 19.23014
Sn  0.07769 -1.65302 19.22640
Sn  2.16497 -0.81966 21.34334
Sn  6.38779 -2.38057 21.32103
Sn  0.05388 -3.20389 23.42345
Sn  4.28469 -1.64381 23.42303
Sn  6.39087 -0.81569 25.54555
Sn  2.16856 -2.37632 25.54023
Sn  4.27264 -3.20713 27.63767
Sn  0.05900 -1.64626 27.64384
Sn  2.17074 -0.81892 29.76623
Sn  6.37374 -2.37006 29.74600
Sn  0.02311 -3.21592 31.85406
Sn  4.28048 -1.64917 31.89036
Sn  6.38567 -0.81665 34.03518
Sn  2.09328 -2.36436 33.95783
Sn  4.17646 -3.21401 36.06009
Sn  0.05576 -1.64697 36.15405
Sn  2.16539 -0.81342 38.27449
Sn  6.27939 -2.37396 38.16536
Sn -0.05375 -3.20830 40.27112
Sn  4.27332 -1.64837 40.38083
Sn  6.37702 -0.80802 42.48514
Sn  2.05462 -2.37875 42.39266
Sn  4.16887 -3.20636 44.50913
Sn  0.01291 -1.65732 44.58968
Sn  2.08717 -0.80691 46.69168
Sn  6.27252 -2.37332 46.65674
Sn -0.05978 -3.20353 48.78036
Sn  4.17449 -1.65328 48.79911
Sn  6.27907 -0.81386 50.90755
Sn  2.05161 -2.37581 50.90278
Sn  4.16252 -3.20644 53.00098
Sn -0.05815 -1.64659 53.00634
Sn  2.05605 -0.81849 55.12270
Sn  6.26900 -2.37885 55.12280
Sn -0.05600 -3.20400 57.20386
Sn  4.16561 -1.64397 57.22486
Sn  6.30073 -0.82466 59.31927
Sn  2.02366 -2.36476 59.31979
Sn  4.16579 -3.20387 61.43842
Sn -0.05762 -1.64974 61.56710
Sn  2.14973 -0.83436 63.51006
Sn  6.17058 -2.35492 63.52206
Sn -0.04043 -3.18776 93.58388
Sn  4.34303 -1.65829 93.57400
Sn  6.37763 -0.82247 95.64751
Sn  2.15419 -2.37632 95.53695
Sn  4.24793 -3.19235 97.77656
Sn  0.07769 -1.65302 97.77282
Sn  2.16497 -0.81966 99.88976
Sn  6.38779 -2.38057 99.86745
Sn  0.05388 -3.20389 101.96987
Sn  4.28469 -1.64381 101.96945
Sn  6.39087 -0.81569 104.09197
Sn  2.16856 -2.37632 104.08665
Sn  4.27264 -3.20713 106.18408
Sn  0.05900 -1.64626 106.19025
Sn  2.17074 -0.81892 108.31265
Sn  6.37374 -2.37006 108.29241
Sn  0.02311 -3.21592 110.40047
Sn  4.28048 -1.64917 110.43678
Sn  6.38567 -0.81665 112.58160
Sn  2.09328 -2.36436 112.50425
Sn  4.17646 -3.21401 114.60650
Sn  0.05576 -1.64697 114.70046
Sn  2.16539 -0.81342 116.82090
Sn  6.27939 -2.37396 116.71178
Sn -0.05375 -3.20830 118.81754
Sn  4.27332 -1.64837 118.92724
Sn  6.37702 -0.80802 121.03156
Sn  2.05462 -2.37875 120.93907
Sn  4.16887 -3.20636 123.05555
Sn  0.01291 -1.65732 123.13609
Sn  2.08717 -0.80691 125.23810
Sn  6.27252 -2.37332 125.20315
Sn -0.05978 -3.20353 127.32677
Sn  4.17449 -1.65328 127.34552
Sn  6.27907 -0.81386 129.45397
Sn  2.05161 -2.37581 129.44920
Sn  4.16252 -3.20644 131.54740
Sn -0.05815 -1.64659 131.55276
Sn  2.05605 -0.81849 133.66911
Sn  6.26900 -2.37885 133.66922
Sn -0.05600 -3.20400 135.75027
Sn  4.16561 -1.64397 135.77128
Sn  6.30073 -0.82466 137.86568
Sn  2.02366 -2.36476 137.86620
Sn  4.16579 -3.20387 139.98484
Sn -0.05762 -1.64974 140.11352
Sn  2.14973 -0.83436 142.05647
Sn  6.17058 -2.35492 142.06848
Sn -0.04043  0.03024 -63.50896
Sn  4.34303  1.55971 -63.51883
Sn  6.37763  2.39553 -61.44532
Sn  2.15419  0.84168 -61.55588
Sn  4.24793  0.02565 -59.31627
Sn  0.07769  1.56498 -59.32002
Sn  2.16497  2.39834 -57.20308
Sn  6.38779  0.83743 -57.22539
Sn  0.05388  0.01411 -55.12297
Sn  4.28469  1.57419 -55.12339
Sn  6.39087  2.40231 -53.00087
Sn  2.16856  0.84168 -53.00618
Sn  4.27264  0.01087 -50.90875
Sn  0.05900  1.57174 -50.90258
Sn  2.17074  2.39908 -48.78019
Sn  6.37374  0.84794 -48.80042
Sn  0.02311  0.00208 -46.69236
Sn  4.28048  1.56883 -46.65606
Sn  6.38567  2.40135 -44.51123
Sn  2.09328  0.85364 -44.58858
Sn  4.17646  0.00399 -42.48633
Sn  0.05576  1.57103 -42.39237
Sn  2.16539  2.40458 -40.27193
Sn  6.27939  0.84404 -40.38105
Sn -0.05375  0.00970 -38.27529
Sn  4.27332  1.56963 -38.16559
Sn  6.37702  2.40998 -36.06128
Sn  2.05462  0.83925 -36.15376
Sn  4.16887  0.01164 -34.03728
Sn  0.01291  1.56068 -33.95674
Sn  2.08717  2.41109 -31.85474
Sn  6.27252  0.84468 -31.88968
Sn -0.05978  0.01447 -29.76606
Sn  4.17449  1.56472 -29.74731
Sn  6.27907  2.40414 -27.63887
Sn  2.05161  0.84219 -27.64363
Sn  4.16252  0.01156 -25.54543
Sn -0.05815  1.57141 -25.54007
Sn  2.05605  2.39951 -23.42372
Sn  6.26900  0.83915 -23.42361
Sn -0.05600  0.01400 -21.34256
Sn  4.16561  1.57403 -21.32155
Sn  6.30073  2.39334 -19.22715
Sn  2.02366  0.85324 -19.22663
Sn  4.16579  0.01413 -17.10799
Sn -0.05762  1.56826 -16.97932
Sn  2.14973  2.38364 -15.03636
Sn  6.17058  0.86308 -15.02435
Sn -0.04043  0.03024 15.03746
Sn  4.34303  1.55971 15.02759
Sn  6.37763  2.39553 17.10110
Sn  2.15419  0.84168 16.99054
Sn  4.24793  0.02565 19.23014
Sn  0.07769  1.56498 19.22640
Sn  2.16497  2.39834 21.34334
Sn  6.38779  0.83743 21.32103
Sn  0.05388  0.01411 23.42345
Sn  4.28469  1.57419 23.42303
Sn  6.39087  2.40231 25.54555
Sn  2.16856  0.84168 25.54023
Sn  4.27264  0.01087 27.63767
Sn  0.05900  1.57174 27.64384
Sn  2.17074  2.39908 29.76623
Sn  6.37374  0.84794 29.74600
Sn  0.02311  0.00208 31.85406
Sn  4.28048  1.56883 31.89036
Sn  6.38567  2.40135 34.03518
Sn  2.09328  0.85364 33.95783
Sn  4.17646  0.00399 36.06009
Sn  0.05576  1.57103 36.15405
Sn  2.16539  2.40458 38.27449
Sn  6.27939  0.84404 38.16536
Sn -0.05375  0.00970 40.27112
Sn  4.27332  1.56963 40.38083
Sn  6.37702  2.40998 42.48514
Sn  2.05462  0.83925 42.39266
Sn  4.16887  0.01164 44.50913
Sn  0.01291  1.56068 44.58968
Sn  2.08717  2.41109 46.69168
Sn  6.27252  0.84468 46.65674
Sn -0.05978  0.01447 48.78036
Sn  4.17449  1.56472 48.79911
Sn  6.27907  2.40414 50.90755
Sn  2.05161  0.84219 50.90278
Sn  4.16252  0.01156 53.00098
Sn -0.05815  1.57141 53.00634
Sn  2.05605  2.39951 55.12270
Sn  6.26900  0.83915 55.12280
Sn -0.05600  0.01400 57.20386
Sn  4.16561  1.57403 57.22486
Sn  6.30073  2.39334 59.31927
Sn  2.02366  0.85324 59.31979
Sn  4.16579  0.01413 61.43842
Sn -0.05762  1.56826 61.56710
Sn  2.14973  2.38364 63.51006
Sn  6.17058  0.86308 63.52206
Sn -0.04043  0.03024 93.58388
Sn  4.34303  1.55971 93.57400
Sn  6.37763  2.39553 95.64751
Sn  2.15419  0.84168 95.53695
Sn  4.24793  0.02565 97.77656
Sn  0.07769  1.56498 97.77282
Sn  2.16497  2.39834 99.88976
Sn  6.38779  0.83743 99.86745
Sn  0.05388  0.01411 101.96987
Sn  4.28469  1.57419 101.96945
Sn  6.39087  2.40231 104.09197
Sn  2.16856  0.84168 104.08665
Sn  4.27264  0.01087 106.18408
Sn  0.05900  1.57174 106.19025
Sn  2.17074  2.39908 108.31265
Sn  6.37374  0.84794 108.29241
Sn  0.02311  0.00208 110.40047
Sn  4.28048  1.56883 110.43678
Sn  6.38567  2.40135 112.58160
Sn  2.09328  0.85364 112.50425
Sn  4.17646  0.00399 114.60650
Sn  0.05576  1.57103 114.70046
Sn  2.16539  2.40458 116.82090
Sn  6.27939  0.84404 116.71178
Sn -0.05375  0.00970 118.81754
Sn  4.27332  1.56963 118.92724
Sn  6.37702  2.40998 121.03156
Sn  2.05462  0.83925 120.93907
Sn  4.16887  0.01164 123.05555
Sn  0.01291  1.56068 123.13609
Sn  2.08717  2.41109 125.23810
Sn  6.27252  0.84468 125.20315
Sn -0.05978  0.01447 127.32677
Sn  4.17449  1.56472 127.34552
Sn  6.27907  2.40414 129.45397
Sn  2.05161  0.84219 129.44920
Sn  4.16252  0.01156 131.54740
Sn -0.05815  1.57141 131.55276
Sn  2.05605  2.39951 133.66911
Sn  6.26900  0.83915 133.66922
Sn -0.05600  0.01400 135.75027
Sn  4.16561  1.57403 135.77128
Sn  6.30073  2.39334 137.86568
Sn  2.02366  0.85324 137.86620
Sn  4.16579  0.01413 139.98484
Sn -0.05762  1.56826 140.11352
Sn  2.14973  2.38364 142.05647
Sn  6.17058  0.86308 142.06848
Sn -0.04043  3.24824 -63.50896
Sn  4.34303  4.77771 -63.51883
Sn  6.37763  5.61353 -61.44532
Sn  2.15419  4.05968 -61.55588
Sn  4.24793  3.24365 -59.31627
Sn  0.07769  4.78298 -59.32002
Sn  2.16497  5.61634 -57.20308
Sn  6.38779  4.05543 -57.22539
Sn  0.05388  3.23211 -55.12297
Sn  4.28469  4.79219 -55.12339
Sn  6.39087  5.62031 -53.00087
Sn  2.16856  4.05968 -53.00618
Sn  4.27264  3.22887 -50.90875
Sn  0.05900  4.78974 -50.90258
Sn  2.17074  5.61708 -48.78019
Sn  6.37374  4.06594 -48.80042
Sn  0.02311  3.22008 -46.69236
Sn  4.28048  4.78683 -46.65606
Sn  6.38567  5.61935 -44.51123
Sn  2.09328  4.07164 -44.58858
Sn  4.17646  3.22199 -42.48633
Sn  0.05576  4.78903 -42.39237
Sn  2.16539  5.62258 -40.27193
Sn  6.27939  4.06204 -40.38105
Sn -0.05375  3.22770 -38.27529
Sn  4.27332  4.78763 -38.16559
Sn  6.37702  5.62798 -36.06128
Sn  2.05462  4.05725 -36.15376
Sn  4.16887  3.22964 -34.03728
Sn  0.01291  4.77868 -33.95674
Sn  2.08717  5.62909 -31.85474
Sn  6.27252  4.06268 -31.88968
Sn -0.05978  3.23247 -29.76606
Sn  4.17449  4.78272 -29.74731
Sn  6.27907  5.62214 -27.63887
Sn  2.05161  4.06019 -27.64363
Sn  4.16252  3.22956 -25.54543
Sn -0.05815  4.78941 -25.54007
Sn  2.05605  5.61751 -23.42372
Sn  6.26900  4.05715 -23.42361
Sn -0.05600  3.23200 -21.34256
Sn  4.16561  4.79203 -21.32155
Sn  6.30073  5.61134 -19.22715
Sn  2.02366  4.07124 -19.22663
Sn  4.16579  3.23213 -17.10799
Sn -0.05762  4.78626 -16.97932
Sn  2.14973  5.60164 -15.03636
Sn  6.17058  4.08108 -15.02435
Sn -0.04043  3.24824 15.03746
Sn  4.34303  4.77771 15.02759
Sn  6.37763  5.61353 17.10110
Sn  2.15419  4.05968 16.99054
Sn  4.24793  3.24365 19.23014
Sn  0.07769  4.78298 19.22640
Sn  2.16497  5.61634 21.34334
Sn  6.38779  4.05543 21.32103
Sn  0.05388  3.23211 23.42345
Sn  4.28469  4.79219 23.42303
Sn  6.39087  5.62031 25.54555
Sn  2.16856  4.05968 25.54023
Sn  4.27264  3.22887 27.63767
Sn  0.05900  4.78974 27.64384
Sn  2.17074  5.61708 29.76623
Sn  6.37374  4.06594 29.74600
Sn  0.02311  3.22008 31.85406
Sn  4.28048  4.78683 31.89036
Sn  6.38567  5.61935 34.03518
Sn  2.09328  4.07164 33.95783
Sn  4.17646  3.22199 36.06009
Sn  0.05576  4.78903 36.15405
Sn  2.16539  5.62258 38.27449
Sn  6.27939  4.06204 38.16536
Sn -0.05375  3.22770 40.27112
Sn  4.27332  4.78763 40.38083
Sn  6.37702  5.62798 42.48514
Sn  2.05462  4.05725 42.39266
Sn  4.16887  3.22964 44.50913
Sn  0.01291  4.77868 44.58968
Sn  2.08717  5.62909 46.69168
Sn  6.27252  4.06268 46.65674
Sn -0.05978  3.23247 48.78036
Sn  4.17449  4.78272 48.79911
Sn  6.27907  5.62214 50.90755
Sn  2.05161  4.06019 50.90278
Sn  4.16252  3.22956 53.00098
Sn -0.05815  4.78941 53.00634
Sn  2.05605  5.61751 55.12270
Sn  6.26900  4.05715 55.12280
Sn -0.05600  3.23200 57.20386
Sn  4.16561  4.79203 57.22486
Sn  6.30073  5.61134 59.31927
Sn  2.02366  4.07124 59.31979
Sn  4.16579  3.23213 61.43842
Sn -0.05762  4.78626 61.56710
Sn  2.14973  5.60164 63.51006
Sn  6.17058  4.08108 63.52206
Sn -0.04043  3.24824 93.58388
Sn  4.34303  4.77771 93.57400
Sn  6.37763  5.61353 95.64751
Sn  2.15419  4.05968 95.53695
Sn  4.24793  3.24365 97.77656
Sn  0.07769  4.78298 97.77282
Sn  2.16497  5.61634 99.88976
Sn  6.38779  4.05543 99.86745
Sn  0.05388  3.23211 101.96987
Sn  4.28469  4.79219 101.96945
Sn  6.39087  5.62031 104.09197
Sn  2.16856  4.05968 104.08665
Sn  4.27264  3.22887 106.18408
Sn  0.05900  4.78974 106.19025
Sn  2.17074  5.61708 108.31265
Sn  6.37374  4.06594 108.29241
Sn  0.02311  3.22008 110.40047
Sn  4.28048  4.78683 110.43678
Sn  6.38567  5.61935 112.58160
Sn  2.09328  4.07164 112.50425
Sn  4.17646  3.22199 114.60650
Sn  0.05576  4.78903 114.70046
Sn  2.16539  5.62258 116.82090
Sn  6.27939  4.06204 116.71178
Sn -0.05375  3.22770 118.81754
Sn  4.27332  4.78763 118.92724
Sn  6.37702  5.62798 121.03156
Sn  2.05462  4.05725 120.93907
Sn  4.16887  3.22964 123.05555
Sn  0.01291  4.77868 123.13609
Sn  2.08717  5.62909 125.23810
Sn  6.27252  4.06268 125.20315
Sn -0.05978  3.23247 127.32677
Sn  4.17449  4.78272 127.34552
Sn  6.27907  5.62214 129.45397
Sn  2.05161  4.06019 129.44920
Sn  4.16252  3.22956 131.54740
Sn -0.05815  4.78941 131.55276
Sn  2.05605  5.61751 133.66911
Sn  6.26900  4.05715 133.66922
Sn -0.05600  3.23200 135.75027
Sn  4.16561  4.79203 135.77128
Sn  6.30073  5.61134 137.86568
Sn  2.02366  4.07124 137.86620
Sn  4.16579  3.23213 139.98484
Sn -0.05762  4.78626 140.11352
Sn  2.14973  5.60164 142.05647
Sn  6.17058  4.08108 142.06848
Sn  8.40242 -3.18776 -63.50896
Sn 12.78589 -1.65829 -63.51883
Sn 14.82049 -0.82247 -61.44532
Sn 10.59705 -2.37632 -61.55588
Sn 12.69079 -3.19235 -59.31627
Sn  8.52054 -1.65302 -59.32002
Sn 10.60783 -0.81966 -57.20308
Sn 14.83065 -2.38057 -57.22539
Sn  8.49674 -3.20389 -55.12297
Sn 12.72754 -1.64381 -55.12339
Sn 14.83373 -0.81569 -53.00087
Sn 10.61142 -2.37632 -53.00618
Sn 12.71550 -3.20713 -50.90875
Sn  8.50185 -1.64626 -50.90258
Sn 10.61359 -0.81892 -48.78019
Sn 14.81659 -2.37006 -48.80042
Sn  8.46596 -3.21592 -46.69236
Sn 12.72334 -1.64917 -46.65606
Sn 14.82852 -0.81665 -44.51123
Sn 10.53614 -2.36436 -44.58858
Sn 12.61931 -3.21401 -42.48633
Sn  8.49862 -1.64697 -42.39237
Sn 10.60825 -0.81342 -40.27193
Sn 14.72225 -2.37396 -40.38105
Sn  8.38911 -3.20830 -38.27529
Sn 12.71617 -1.64837 -38.16559
Sn 14.81988 -0.80802 -36.06128
Sn 10.49748 -2.37875 -36.15376
Sn 12.61173 -3.20636 -34.03728
Sn  8.45576 -1.65732 -33.95674
Sn 10.53002 -0.80691 -31.85474
Sn 14.71538 -2.37332 -31.88968
Sn  8.38308 -3.20353 -29.76606
Sn 12.61735 -1.65328 -29.74731
Sn 14.72192 -0.81386 -27.63887
Sn 10.49447 -2.37581 -27.64363
Sn 12.60537 -3.20644 -25.54543
Sn  8.38470 -1.64659 -25.54007
Sn 10.49890 -0.81849 -23.42372
Sn 14.71186 -2.37885 -23.42361
Sn  8.38686 -3.20400 -21.34256
Sn 12.60846 -1.64397 -21.32155
Sn 14.74358 -0.82466 -19.22715
Sn 10.46651 -2.36476 -19.22663
Sn 12.60864 -3.20387 -17.10799
Sn  8.38523 -1.64974 -16.97932
Sn 10.59258 -0.83436 -15.03636
Sn 14.61343 -2.35492 -15.02435
Sn  8.40242 -3.18776 15.03746
Sn 12.78589 -1.65829 15.02759
Sn 14.82049 -0.82247 17.10110
Sn 10.59705 -2.37632 16.99054
Sn 12.69079 -3.19235 19.23014
Sn  8.52054 -1.65302 19.22640
Sn 10.60783 -0.81966 21.34334
Sn 14.83065 -2.38057 21.32103
Sn  8.49674 -3.20389 23.42345
Sn 12.72754 -1.64381 23.42303
Sn 14.83373 -0.81569 25.54555
Sn 10.61142 -2.37632 25.54023
Sn 12.71550 -3.20713 27.63767
Sn  8.50185 -1.64626 27.64384
Sn 10.61359 -0.81892 29.76623
Sn 14.81659 -2.37006 29.74600
Sn  8.46596 -3.21592 31.85406
Sn 12.72334 -1.64917 31.89036
Sn 14.82852 -0.81665 34.03518
Sn 10.53614 -2.36436 33.95783
Sn 12.61931 -3.21401 36.06009
Sn  8.49862 -1.64697 36.15405
Sn 10.60825 -0.81342 38.27449
Sn 14.72225 -2.37396 38.16536
Sn  8.38911 -3.20830 40.27112
Sn 12.71617 -1.64837 40.38083
Sn 14.81988 -0.80802 42.48514
Sn 10.49748 -2.37875 42.39266
Sn 12.61173 -3.20636 44.50913
Sn  8.45576 -1.65732 44.58968
Sn 10.53002 -0.80691 46.69168
Sn 14.71538 -2.37332 46.65674
Sn  8.38308 -3.20353 48.78036
Sn 12.61735 -1.65328 48.79911
Sn 14.72192 -0.81386 50.90755
Sn 10.49447 -2.37581 50.90278
Sn 12.60537 -3.20644 53.00098
Sn  8.38470 -1.64659 53.00634
Sn 10.49890 -0.81849 55.12270
Sn 14.71186 -2.37885 55.12280
Sn  8.38686 -3.20400 57.20386
Sn 12.60846 -1.64397 57.22486
Sn 14.74358 -0.82466 59.31927
Sn 10.46651 -2.36476 59.31979
Sn 12.60864 -3.20387 61.43842
Sn  8.38523 -1.64974 61.56710
Sn 10.59258 -0.83436 63.51006
Sn 14.61343 -2.35492 63.52206
Sn  8.40242 -3.18776 93.58388
Sn 12.78589 -1.65829 93.57400
Sn 14.82049 -0.82247 95.64751
Sn 10.59705 -2.37632 95.53695
Sn 12.69079 -3.19235 97.77656
Sn  8.52054 -1.65302 97.77282
Sn 10.60783 -0.81966 99.88976
Sn 14.83065 -2.38057 99.86745
Sn  8.49674 -3.20389 101.96987
Sn 12.72754 -1.64381 101.96945
Sn 14.83373 -0.81569 104.09197
Sn 10.61142 -2.37632 104.08665
Sn 12.71550 -3.20713 106.18408
Sn  8.50185 -1.64626 106.19025
Sn 10.61359 -0.81892 108.31265
Sn 14.81659 -2.37006 108.29241
Sn  8.46596 -3.21592 110.40047
Sn 12.72334 -1.64917 110.43678
Sn 14.82852 -0.81665 112.58160
Sn 10.53614 -2.36436 112.50425
Sn 12.61931 -3.21401 114.60650
Sn  8.49862 -1.64697 114.70046
Sn 10.60825 -0.81342 116.82090
Sn 14.72225 -2.37396 116.71178
Sn  8.38911 -3.20830 118.81754
Sn 12.71617 -1.64837 118.92724
Sn 14.81988 -0.80802 121.03156
Sn 10.49748 -2.37875 120.93907
Sn 12.61173 -3.20636 123.05555
Sn  8.45576 -1.65732 123.13609
Sn 10.53002 -0.80691 125.23810
Sn 14.71538 -2.37332 125.20315
Sn  8.38308 -3.20353 127.32677
Sn 12.61735 -1.65328 127.34552
Sn 14.72192 -0.81386 129.45397
Sn 10.49447 -2.37581 129.44920
Sn 12.60537 -3.20644 131.54740
Sn  8.38470 -1.64659 131.55276
Sn 10.49890 -0.81849 133.66911
Sn 14.71186 -2.37885 133.66922
Sn  8.38686 -3.20400 135.75027
Sn 12.60846 -1.64397 135.77128
Sn 14.74358 -0.82466 137.86568
Sn 10.46651 -2.36476 137.86620
Sn 12.60864 -3.20387 139.98484
Sn  8.38523 -1.64974 140.11352
Sn 10.59258 -0.83436 142.05647
Sn 14.61343 -2.35492 142.06848
Sn  8.40242  0.03024 -63.50896
Sn 12.78589  1.55971 -63.51883
Sn 14.82049  2.39553 -61.44532
Sn 10.59705  0.84168 -61.55588
Sn 12.69079  0.02565 -59.31627
Sn  8.52054  1.56498 -59.32002
Sn 10.60783  2.39834 -57.20308
Sn 14.83065  0.83743 -57.22539
Sn  8.49674  0.01411 -55.12297
Sn 12.72754  1.57419 -55.12339
Sn 14.83373  2.40231 -53.00087
Sn 10.61142  0.84168 -53.00618
Sn 12.71550  0.01087 -50.90875
Sn  8.50185  1.57174 -50.90258
Sn 10.61359  2.39908 -48.78019
Sn 14.81659  0.84794 -48.80042
Sn  8.46596  0.00208 -46.69236
Sn 12.72334  1.56883 -46.65606
Sn 14.82852  2.40135 -44.51123
Sn 10.53614  0.85364 -44.58858
Sn 12.61931  0.00399 -42.48633
Sn  8.49862  1.57103 -42.39237
Sn 10.60825  2.40458 -40.27193
Sn 14.72225  0.84404 -40.38105
Sn  8.38911  0.00970 -38.27529
Sn 12.71617  1.56963 -38.16559
Sn 14.81988  2.40998 -36.06128
Sn 10.49748  0.83925 -36.15376
Sn 12.61173  0.01164 -34.03728
Sn  8.45576  1.56068 -33.95674
Sn 10.53002  2.41109 -31.85474
Sn 14.71538  0.84468 -31.88968
Sn  8.38308  0.01447 -29.76606
Sn 12.61735  1.56472 -29.74731
Sn 14.72192  2.40414 -27.63887
Sn 10.49447  0.84219 -27.64363
Sn 12.60537  0.01156 -25.54543
Sn  8.38470  1.57141 -25.54007
Sn 10.49890  2.39951 -23.42372
Sn 14.71186  0.83915 -23.42361
Sn  8.38686  0.01400 -21.34256
Sn 12.60846  1.57403 -21.32155
Sn 14.74358  2.39334 -19.22715
Sn 10.46651  0.85324 -19.22663
Sn 12.60864  0.01413 -17.10799
Sn  8.38523  1.56826 -16.97932
Sn 10.59258  2.38364 -15.03636
Sn 14.61343  0.86308 -15.02435
Sn  8.40242  0.03024 15.03746
Sn 12.78589  1.55971 15.02759
Sn 14.82049  2.39553 17.10110
Sn 10.59705  0.84168 16.99054
Sn 12.69079  0.02565 19.23014
Sn  8.52054  1.56498 19.22640
Sn 10.60783  2.39834 21.34334
Sn 14.83065  0.83743 21.32103
Sn  8.49674  0.01411 23.42345
Sn 12.72754  1.57419 23.42303
Sn 14.83373  2.40231 25.54555
Sn 10.61142  0.84168 25.54023
Sn 12.71550  0.01087 27.63767
Sn  8.50185  1.57174 27.64384
Sn 10.61359  2.39908 29.76623
Sn 14.81659  0.84794 29.74600
Sn  8.46596  0.00208 31.85406
Sn 12.72334  1.56883 31.89036
Sn 14.82852  2.40135 34.03518
Sn 10.53614  0.85364 33.95783
Sn 12.61931  0.00399 36.06009
Sn  8.49862  1.57103 36.15405
Sn 10.60825  2.40458 38.27449
Sn 14.72225  0.84404 38.16536
Sn  8.38911  0.00970 40.27112
Sn 12.71617  1.56963 40.38083
Sn 14.81988  2.40998 42.48514
Sn 10.49748  0.83925 42.39266
Sn 12.61173  0.01164 44.50913
Sn  8.45576  1.56068 44.58968
Sn 10.53002  2.41109 46.69168
Sn 14.71538  0.84468 46.65674
Sn  8.38308  0.01447 48.78036
Sn 12.61735  1.56472 48.79911
Sn 14.72192  2.40414 50.90755
Sn 10.49447  0.84219 50.90278
Sn 12.60537  0.01156 53.00098
Sn  8.38470  1.57141 53.00634
Sn 10.49890  2.39951 55.12270
Sn 14.71186  0.83915 55.12280
Sn  8.38686  0.01400 57.20386
Sn 12.60846  1.57403 57.22486
Sn 14.74358  2.39334 59.31927
Sn 10.46651  0.85324 59.31979
Sn 12.60864  0.01413 61.43842
Sn  8.38523  1.56826 61.56710
Sn 10.59258  2.38364 63.51006
Sn 14.61343  0.86308 63.52206
Sn  8.40242  0.03024 93.58388
Sn 12.78589  1.55971 93.57400
Sn 14.82049  2.39553 95.64751
Sn 10.59705  0.84168 95.53695
Sn 12.69079  0.02565 97.77656
Sn  8.52054  1.56498 97.77282
Sn 10.60783  2.39834 99.88976
Sn 14.83065  0.83743 99.86745
Sn  8.49674  0.01411 101.96987
Sn 12.72754  1.57419 101.96945
Sn 14.83373  2.40231 104.09197
Sn 10.61142  0.84168 104.08665
Sn 12.71550  0.01087 106.18408
Sn  8.50185  1.57174 106.19025
Sn 10.61359  2.39908 108.31265
Sn 14.81659  0.84794 108.29241
Sn  8.46596  0.00208 110.40047
Sn 12.72334  1.56883 110.43678
Sn 14.82852  2.40135 112.58160
Sn 10.53614  0.85364 112.50425
Sn 12.61931  0.00399 114.60650
Sn  8.49862  1.57103 114.70046
Sn 10.60825  2.40458 116.82090
Sn 14.72225  0.84404 116.71178
Sn  8.38911  0.00970 118.81754
Sn 12.71617  1.56963 118.92724
Sn 14.81988  2.40998 121.03156
Sn 10.49748  0.83925 120.93907
Sn 12.61173  0.01164 123.05555
Sn  8.45576  1.56068 123.13609
Sn 10.53002  2.41109 125.23810
Sn 14.71538  0.84468 125.20315
Sn  8.38308  0.01447 127.32677
Sn 12.61735  1.56472 127.34552
Sn 14.72192  2.40414 129.45397
Sn 10.49447  0.84219 129.44920
Sn 12.60537  0.01156 131.54740
Sn  8.38470  1.57141 131.55276
Sn 10.49890  2.39951 133.66911
Sn 14.71186  0.83915 133.66922
Sn  8.38686  0.01400 135.75027
Sn 12.60846  1.57403 135.77128
Sn 14.74358  2.39334 137.86568
Sn 10.46651  0.85324 137.86620
Sn 12.60864  0.01413 139.98484
Sn  8.38523  1.56826 140.11352
Sn 10.59258  2.38364 142.05647
Sn 14.61343  0.86308 142.06848
Sn  8.40242  3.24824 -63.50896
Sn 12.78589  4.77771 -63.51883
Sn 14.82049  5.61353 -61.44532
Sn 10.59705  4.05968 -61.55588
Sn 12.69079  3.24365 -59.31627
Sn  8.52054  4.78298 -59.32002
Sn 10.60783  5.61634 -57.20308
Sn 14.83065  4.05543 -57.22539
Sn  8.49674  3.23211 -55.12297
Sn 12.72754  4.79219 -55.12339
Sn 14.83373  5.62031 -53.00087
Sn 10.61142  4.05968 -53.00618
Sn 12.71550  3.22887 -50.90875
Sn  8.50185  4.78974 -50.90258
Sn 10.61359  5.61708 -48.78019
Sn 14.81659  4.06594 -48.80042
Sn  8.46596  3.22008 -46.69236
Sn 12.72334  4.78683 -46.65606
Sn 14.82852  5.61935 -44.51123
Sn 10.53614  4.07164 -44.58858
Sn 12.61931  3.22199 -42.48633
Sn  8.49862  4.78903 -42.39237
Sn 10.60825  5.62258 -40.27193
Sn 14.72225  4.06204 -40.38105
Sn  8.38911  3.22770 -38.27529
Sn 12.71617  4.78763 -38.16559
Sn 14.81988  5.62798 -36.06128
Sn 10.49748  4.05725 -36.15376
Sn 12.61173  3.22964 -34.03728
Sn  8.45576  4.77868 -33.95674
Sn 10.53002  5.62909 -31.85474
Sn 14.71538  4.06268 -31.88968
Sn  8.38308  3.23247 -29.76606
Sn 12.61735  4.78272 -29.74731
Sn 14.72192  5.62214 -27.63887
Sn 10.49447  4.06019 -27.64363
Sn 12.60537  3.22956 -25.54543
Sn  8.38470  4.78941 -25.54007
Sn 10.49890  5.61751 -23.42372
Sn 14.71186  4.05715 -23.42361
Sn  8.38686  3.23200 -21.34256
Sn 12.60846  4.79203 -21.32155
Sn 14.74358  5.61134 -19.22715
Sn 10.46651  4.07124 -19.22663
Sn 12.60864  3.23213 -17.10799
Sn  8.38523  4.78626 -16.97932
Sn 10.59258  5.60164 -15.03636
Sn 14.61343  4.08108 -15.02435
Sn  8.40242  3.24824 15.03746
Sn 12.78589  4.77771 15.02759
Sn 14.82049  5.61353 17.10110
Sn 10.59705  4.05968 16.99054
Sn 12.69079  3.24365 19.23014
Sn  8.52054  4.78298 19.22640
Sn 10.60783  5.61634 21.34334
Sn 14.83065  4.05543 21.32103
Sn  8.49674  3.23211 23.42345
Sn 12.72754  4.79219 23.42303
Sn 14.83373  5.62031 25.54555
Sn 10.61142  4.05968 25.54023
Sn 12.71550  3.22887 27.63767
Sn  8.50185  4.78974 27.64384
Sn 10.61359  5.61708 29.76623
Sn 14.81659  4.06594 29.74600
Sn  8.46596  3.22008 31.85406
Sn 12.72334  4.78683 31.89036
Sn 14.82852  5.61935 34.03518
Sn 10.53614  4.07164 33.95783
Sn 12.61931  3.22199 36.06009
Sn  8.49862  4.78903 36.15405
Sn 10.60825  5.62258 38.27449
Sn 14.72225  4.06204 38.16536
Sn  8.38911  3.22770 40.27112
Sn 12.71617  4.78763 40.38083
Sn 14.81988  5.62798 42.48514
Sn 10.49748  4.05725 42.39266
Sn 12.61173  3.22964 44.50913
Sn  8.45576  4.77868 44.58968
Sn 10.53002  5.62909 46.69168
Sn 14.71538  4.06268 46.65674
Sn  8.38308  3.23247 48.78036
Sn 12.61735  4.78272 48.79911
Sn 14.72192  5.62214 50.90755
Sn 10.49447  4.06019 50.90278
Sn 12.60537  3.22956 53.00098
Sn  8.38470  4.78941 53.00634
Sn 10.49890  5.61751 55.12270
Sn 14.71186  4.05715 55.12280
Sn  8.38686  3.23200 57.20386
Sn 12.60846  4.79203 57.22486
Sn 14.74358  5.61134 59.31927
Sn 10.46651  4.07124 59.31979
Sn 12.60864  3.23213 61.43842
Sn  8.38523  4.78626 61.56710
Sn 10.59258  5.60164 63.51006
Sn 14.61343  4.08108 63.52206
Sn  8.40242  3.24824 93.58388
Sn 12.78589  4.77771 93.57400
Sn 14.82049  5.61353 95.64751
Sn 10.59705  4.05968 95.53695
Sn 12.69079  3.24365 97.77656
Sn  8.52054  4.78298 97.77282
Sn 10.60783  5.61634 99.88976
Sn 14.83065  4.05543 99.86745
Sn  8.49674  3.23211 101.96987
Sn 12.72754  4.79219 101.96945
Sn 14.83373  5.62031 104.09197
Sn 10.61142  4.05968 104.08665
Sn 12.71550  3.22887 106.18408
Sn  8.50185  4.78974 106.19025
Sn 10.61359  5.61708 108.31265
Sn 14.81659  4.06594 108.29241
Sn  8.46596  3.22008 110.40047
Sn 12.72334  4.78683 110.43678
Sn 14.82852  5.61935 112.58160
Sn 10.53614  4.07164 112.50425
Sn 12.61931  3.22199 114.60650
Sn  8.49862  4.78903 114.70046
Sn 10.60825  5.62258 116.82090
Sn 14.72225  4.06204 116.71178
Sn  8.38911  3.22770 118.81754
Sn 12.71617  4.78763 118.92724
Sn 14.81988  5.62798 121.03156
Sn 10.49748  4.05725 120.93907
Sn 12.61173  3.22964 123.05555
Sn  8.45576  4.77868 123.13609
Sn 10.53002  5.62909 125.23810
Sn 14.71538  4.06268 125.20315
Sn  8.38308  3.23247 127.32677
Sn 12.61735  4.78272 127.34552
Sn 14.72192  5.62214 129.45397
Sn 10.49447  4.06019 129.44920
Sn 12.60537  3.22956 131.54740
Sn  8.38470  4.78941 131.55276
Sn 10.49890  5.61751 133.66911
Sn 14.71186  4.05715 133.66922
Sn  8.38686  3.23200 135.75027
Sn 12.60846  4.79203 135.77128
Sn 14.74358  5.61134 137.86568
Sn 10.46651  4.07124 137.86620
Sn 12.60864  3.23213 139.98484
Sn  8.38523  4.78626 140.11352
Sn 10.59258  5.60164 142.05647
Sn 14.61343  4.08108 142.06848
