48 

Sn   -0.04043   0.03024  15.03746  -0.000117205278107   0.000089851810196  -0.000031814235553
Sn    4.34303   1.55971  15.02759  -0.000282416740544   0.000164635042991   0.000160442748328
Sn    6.37763   2.39553  17.10110  -0.000070651672668   0.000067901623728  -0.000045695303224
Sn    2.15419   0.84168  16.99054  -0.000217935431576  -0.000103668481880   0.000118996688920
Sn    4.24793   0.02565  19.23014   0.000128882408485  -0.000013483869528  -0.000105181513262
Sn    0.07769   1.56498  19.22640  -0.000042017675330   0.000139576611546  -0.000069639017791
Sn    2.16497   2.39834  21.34334  -0.000130725315362  -0.000053472891662   0.000147671329269
Sn    6.38779   0.83743  21.32103  -0.000073447155702  -0.000235505095353  -0.000012755573325
Sn    0.05388   0.01411  23.42345   0.000073054496326  -0.000069947763644   0.000040893610584
Sn    4.28469   1.57419  23.42303   0.000157847981743  -0.000025684915909  -0.000189839788058
Sn    6.39087   2.40231  25.54555  -0.000049580840684   0.000104116398898   0.000024745570582
Sn    2.16856   0.84168  25.54023  -0.000165606920204  -0.000111594299749   0.000185751260725
Sn    4.27264   0.01087  27.63767   0.000034800497643   0.000178152604575  -0.000176496326687
Sn    0.05900   1.57174  27.64384   0.000057322190689   0.000032184975647   0.000220034455879
Sn    2.17074   2.39908  29.76623   0.000197402618862   0.000059195507594   0.000158411410758
Sn    6.37374   0.84794  29.74600   0.000170263333906  -0.000146684073275  -0.000058308506793
Sn    0.02311   0.00208  31.85406   0.000048020348484  -0.000042451142953  -0.000031641757241
Sn    4.28048   1.56883  31.89036   0.000046302380609   0.000126577673288   0.000032916474849
Sn    6.38567   2.40135  34.03518  -0.000039151373914   0.000101612939048  -0.000012980449980
Sn    2.09328   0.85364  33.95783   0.000270047977194  -0.000082340970537   0.000177085154635
Sn    4.17646   0.00399  36.06009  -0.000034430040668  -0.000007164673884   0.000043637268061
Sn    0.05576   1.57103  36.15405   0.000082454783634  -0.000134544065691  -0.000130436687956
Sn    2.16539   2.40458  38.27449   0.000048282390597   0.000014627516686   0.000021550120378
Sn    6.27939   0.84404  38.16536  -0.000187724245808   0.000051733687849  -0.000038759425358
Sn   -0.05375   0.00970  40.27112   0.000077084758925   0.000012590272773   0.000046635056934
Sn    4.27332   1.56963  40.38083   0.000086030892831  -0.000041082104163  -0.000005886730786
Sn    6.37702   2.40998  42.48514   0.000007038071742   0.000027657175689   0.000000249030367
Sn    2.05462   0.83925  42.39266   0.000018572107568  -0.000065094323598   0.000161761796128
Sn    4.16887   0.01164  44.50913  -0.000001529545519  -0.000016639269484   0.000048788488432
Sn    0.01291   1.56068  44.58968   0.000048831593168  -0.000060278891049  -0.000039515998480
Sn    2.08717   2.41109  46.69168  -0.000004339104088  -0.000002220625470   0.000063356466645
Sn    6.27252   0.84468  46.65674   0.000056160337948  -0.000061304124105   0.000009030538611
Sn   -0.05978   0.01447  48.78036  -0.000093328317399  -0.000035040361598  -0.000017065481361
Sn    4.17449   1.56472  48.79911  -0.000018233103646  -0.000009168898080   0.000075868368165
Sn    6.27907   2.40414  50.90755  -0.000071585198939  -0.000048966414111   0.000162791619631
Sn    2.05161   0.84219  50.90278  -0.000034074849250   0.000104871270169  -0.000158190180150
Sn    4.16252   0.01156  53.00098   0.000028222539483   0.000013528064320  -0.000027396900139
Sn   -0.05815   1.57141  53.00634   0.000142195432293   0.000001331985623  -0.000060926581386
Sn    2.05605   2.39951  55.12270  -0.000242310934539   0.000078766440084  -0.000169109902894
Sn    6.26900   0.83915  55.12280  -0.000088180353834  -0.000006975020158   0.000043588533061
Sn   -0.05600   0.01400  57.20386  -0.000050604970227  -0.000011565074405  -0.000040956132178
Sn    4.16561   1.57403  57.22486   0.000087930241182  -0.000075262169392  -0.000046476537298
Sn    6.30073   2.39334  59.31927  -0.000160594144010   0.000034026063433   0.000171704373927
Sn    2.02366   0.85324  59.31979  -0.000089411837132  -0.000124892756382  -0.000065963840813
Sn    4.16579   0.01413  61.43842  -0.000052027528736  -0.000000230803698   0.000139652813057
Sn   -0.05762   1.56826  61.56710  -0.000016953158015  -0.000115059066558  -0.000127200118318
Sn    2.14973   2.38364  63.51006  -0.000110137053006   0.000072500816178   0.000009518452913
Sn    6.17058   0.86308  63.52206  -0.000045966806236  -0.000143912341650  -0.000112773553672
