1296

Sn -5.97000 -5.97001 -52.44949
Sn -2.98492 -2.98497 -51.18219
Sn -5.96988 -2.98502 -51.87059
Sn -2.98499 -5.96998 -50.67935
Sn -5.97001 -5.97007 -49.46904
Sn -2.98499 -2.98500 -48.07927
Sn -5.97025 -2.98534 -48.78776
Sn -2.98496 -5.97000 -47.32816
Sn -5.97001 -5.97003 -46.30373
Sn -2.98500 -2.98502 -44.78409
Sn -5.97001 -2.98496 -45.58327
Sn -2.98568 -5.97003 -43.98954
Sn -5.97050 -5.97029 -43.13703
Sn -2.98501 -2.98485 -41.60593
Sn -5.97000 -2.98506 -42.34930
Sn -2.98581 -5.96930 -40.78250
Sn -5.97003 -5.96969 -39.95219
Sn -2.98500 -2.98499 -38.32211
Sn -5.97000 -2.98494 -39.13023
Sn -2.98500 -5.97000 -37.52308
Sn -5.96999 -5.97000 -36.70810
Sn -2.98499 -2.98500 -35.13888
Sn -5.97000 -2.98500 -35.93066
Sn -2.98494 -5.96997 -34.31586
Sn -5.97003 -5.96994 -33.49561
Sn -2.98500 -2.98500 -31.88084
Sn -5.97001 -2.98500 -32.67262
Sn -2.98499 -5.97000 -31.10339
Sn -5.97001 -5.97000 -30.28843
Sn -2.98500 -2.98510 -28.68128
Sn -5.97000 -2.98500 -29.48939
Sn -2.98509 -5.97053 -27.85937
Sn -5.97092 -5.97020 -27.02905
Sn -2.98500 -2.98493 -25.46219
Sn -5.97000 -2.98503 -26.20558
Sn -2.98456 -5.96962 -24.67449
Sn -5.96953 -5.97003 -23.82195
Sn -2.98500 -2.98502 -22.22819
Sn -5.97000 -2.98500 -23.02739
Sn -2.98498 -5.96997 -21.50781
Sn -5.97000 -5.97000 -20.48334
Sn -2.98461 -2.98495 -19.02374
Sn -5.97001 -2.98500 -19.73202
Sn -2.98500 -5.96999 -18.34246
Sn -5.97001 -5.96999 -17.13216
Sn -2.98508 -2.98500 -15.94088
Sn -5.97007 -2.98503 -16.62809
Sn -2.98500 -5.97000 -15.36200
Sn -5.97000 -5.97001 15.36201
Sn -2.98492 -2.98497 16.62931
Sn -5.96988 -2.98502 15.94091
Sn -2.98499 -5.96998 17.13215
Sn -5.97001 -5.97007 18.34246
Sn -2.98499 -2.98500 19.73223
Sn -5.97025 -2.98534 19.02374
Sn -2.98496 -5.97000 20.48334
Sn -5.97001 -5.97003 21.50777
Sn -2.98500 -2.98502 23.02741
Sn -5.97001 -2.98496 22.22823
Sn -2.98568 -5.97003 23.82196
Sn -5.97050 -5.97029 24.67447
Sn -2.98501 -2.98485 26.20557
Sn -5.97000 -2.98506 25.46220
Sn -2.98581 -5.96930 27.02900
Sn -5.97003 -5.96969 27.85931
Sn -2.98500 -2.98499 29.48939
Sn -5.97000 -2.98494 28.68127
Sn -2.98500 -5.97000 30.28842
Sn -5.96999 -5.97000 31.10340
Sn -2.98499 -2.98500 32.67262
Sn -5.97000 -2.98500 31.88084
Sn -2.98494 -5.96997 33.49564
Sn -5.97003 -5.96994 34.31589
Sn -2.98500 -2.98500 35.93066
Sn -5.97001 -2.98500 35.13888
Sn -2.98499 -5.97000 36.70811
Sn -5.97001 -5.97000 37.52307
Sn -2.98500 -2.98510 39.13022
Sn -5.97000 -2.98500 38.32211
Sn -2.98509 -5.97053 39.95213
Sn -5.97092 -5.97020 40.78245
Sn -2.98500 -2.98493 42.34931
Sn -5.97000 -2.98503 41.60592
Sn -2.98456 -5.96962 43.13701
Sn -5.96953 -5.97003 43.98955
Sn -2.98500 -2.98502 45.58331
Sn -5.97000 -2.98500 44.78411
Sn -2.98498 -5.96997 46.30369
Sn -5.97000 -5.97000 47.32816
Sn -2.98461 -2.98495 48.78776
Sn -5.97001 -2.98500 48.07948
Sn -2.98500 -5.96999 49.46904
Sn -5.97001 -5.96999 50.67934
Sn -2.98508 -2.98500 51.87062
Sn -5.97007 -2.98503 51.18341
Sn -2.98500 -5.97000 52.44950
Sn -5.97000 -5.97001 83.17351
Sn -2.98492 -2.98497 84.44081
Sn -5.96988 -2.98502 83.75241
Sn -2.98499 -5.96998 84.94365
Sn -5.97001 -5.97007 86.15396
Sn -2.98499 -2.98500 87.54373
Sn -5.97025 -2.98534 86.83524
Sn -2.98496 -5.97000 88.29484
Sn -5.97001 -5.97003 89.31927
Sn -2.98500 -2.98502 90.83891
Sn -5.97001 -2.98496 90.03973
Sn -2.98568 -5.97003 91.63346
Sn -5.97050 -5.97029 92.48597
Sn -2.98501 -2.98485 94.01707
Sn -5.97000 -2.98506 93.27370
Sn -2.98581 -5.96930 94.84050
Sn -5.97003 -5.96969 95.67081
Sn -2.98500 -2.98499 97.30089
Sn -5.97000 -2.98494 96.49277
Sn -2.98500 -5.97000 98.09992
Sn -5.96999 -5.97000 98.91490
Sn -2.98499 -2.98500 100.48412
Sn -5.97000 -2.98500 99.69234
Sn -2.98494 -5.96997 101.30714
Sn -5.97003 -5.96994 102.12739
Sn -2.98500 -2.98500 103.74216
Sn -5.97001 -2.98500 102.95038
Sn -2.98499 -5.97000 104.51961
Sn -5.97001 -5.97000 105.33457
Sn -2.98500 -2.98510 106.94172
Sn -5.97000 -2.98500 106.13361
Sn -2.98509 -5.97053 107.76363
Sn -5.97092 -5.97020 108.59395
Sn -2.98500 -2.98493 110.16081
Sn -5.97000 -2.98503 109.41742
Sn -2.98456 -5.96962 110.94851
Sn -5.96953 -5.97003 111.80105
Sn -2.98500 -2.98502 113.39481
Sn -5.97000 -2.98500 112.59561
Sn -2.98498 -5.96997 114.11519
Sn -5.97000 -5.97000 115.13966
Sn -2.98461 -2.98495 116.59926
Sn -5.97001 -2.98500 115.89098
Sn -2.98500 -5.96999 117.28054
Sn -5.97001 -5.96999 118.49084
Sn -2.98508 -2.98500 119.68212
Sn -5.97007 -2.98503 118.99491
Sn -2.98500 -5.97000 120.26100
Sn -5.97000 -0.00001 -52.44949
Sn -2.98492  2.98503 -51.18219
Sn -5.96988  2.98498 -51.87059
Sn -2.98499  0.00002 -50.67935
Sn -5.97001 -0.00007 -49.46904
Sn -2.98499  2.98500 -48.07927
Sn -5.97025  2.98466 -48.78776
Sn -2.98496  0.00000 -47.32816
Sn -5.97001 -0.00003 -46.30373
Sn -2.98500  2.98498 -44.78409
Sn -5.97001  2.98504 -45.58327
Sn -2.98568 -0.00003 -43.98954
Sn -5.97050 -0.00029 -43.13703
Sn -2.98501  2.98515 -41.60593
Sn -5.97000  2.98494 -42.34930
Sn -2.98581  0.00070 -40.78250
Sn -5.97003  0.00031 -39.95219
Sn -2.98500  2.98501 -38.32211
Sn -5.97000  2.98506 -39.13023
Sn -2.98500  0.00000 -37.52308
Sn -5.96999  0.00000 -36.70810
Sn -2.98499  2.98500 -35.13888
Sn -5.97000  2.98500 -35.93066
Sn -2.98494  0.00003 -34.31586
Sn -5.97003  0.00006 -33.49561
Sn -2.98500  2.98500 -31.88084
Sn -5.97001  2.98500 -32.67262
Sn -2.98499 -0.00000 -31.10339
Sn -5.97001 -0.00000 -30.28843
Sn -2.98500  2.98490 -28.68128
Sn -5.97000  2.98500 -29.48939
Sn -2.98509 -0.00053 -27.85937
Sn -5.97092 -0.00020 -27.02905
Sn -2.98500  2.98507 -25.46219
Sn -5.97000  2.98497 -26.20558
Sn -2.98456  0.00038 -24.67449
Sn -5.96953 -0.00003 -23.82195
Sn -2.98500  2.98498 -22.22819
Sn -5.97000  2.98500 -23.02739
Sn -2.98498  0.00003 -21.50781
Sn -5.97000 -0.00000 -20.48334
Sn -2.98461  2.98505 -19.02374
Sn -5.97001  2.98500 -19.73202
Sn -2.98500  0.00001 -18.34246
Sn -5.97001  0.00001 -17.13216
Sn -2.98508  2.98500 -15.94088
Sn -5.97007  2.98497 -16.62809
Sn -2.98500 -0.00000 -15.36200
Sn -5.97000 -0.00001 15.36201
Sn -2.98492  2.98503 16.62931
Sn -5.96988  2.98498 15.94091
Sn -2.98499  0.00002 17.13215
Sn -5.97001 -0.00007 18.34246
Sn -2.98499  2.98500 19.73223
Sn -5.97025  2.98466 19.02374
Sn -2.98496  0.00000 20.48334
Sn -5.97001 -0.00003 21.50777
Sn -2.98500  2.98498 23.02741
Sn -5.97001  2.98504 22.22823
Sn -2.98568 -0.00003 23.82196
Sn -5.97050 -0.00029 24.67447
Sn -2.98501  2.98515 26.20557
Sn -5.97000  2.98494 25.46220
Sn -2.98581  0.00070 27.02900
Sn -5.97003  0.00031 27.85931
Sn -2.98500  2.98501 29.48939
Sn -5.97000  2.98506 28.68127
Sn -2.98500  0.00000 30.28842
Sn -5.96999  0.00000 31.10340
Sn -2.98499  2.98500 32.67262
Sn -5.97000  2.98500 31.88084
Sn -2.98494  0.00003 33.49564
Sn -5.97003  0.00006 34.31589
Sn -2.98500  2.98500 35.93066
Sn -5.97001  2.98500 35.13888
Sn -2.98499 -0.00000 36.70811
Sn -5.97001 -0.00000 37.52307
Sn -2.98500  2.98490 39.13022
Sn -5.97000  2.98500 38.32211
Sn -2.98509 -0.00053 39.95213
Sn -5.97092 -0.00020 40.78245
Sn -2.98500  2.98507 42.34931
Sn -5.97000  2.98497 41.60592
Sn -2.98456  0.00038 43.13701
Sn -5.96953 -0.00003 43.98955
Sn -2.98500  2.98498 45.58331
Sn -5.97000  2.98500 44.78411
Sn -2.98498  0.00003 46.30369
Sn -5.97000 -0.00000 47.32816
Sn -2.98461  2.98505 48.78776
Sn -5.97001  2.98500 48.07948
Sn -2.98500  0.00001 49.46904
Sn -5.97001  0.00001 50.67934
Sn -2.98508  2.98500 51.87062
Sn -5.97007  2.98497 51.18341
Sn -2.98500 -0.00000 52.44950
Sn -5.97000 -0.00001 83.17351
Sn -2.98492  2.98503 84.44081
Sn -5.96988  2.98498 83.75241
Sn -2.98499  0.00002 84.94365
Sn -5.97001 -0.00007 86.15396
Sn -2.98499  2.98500 87.54373
Sn -5.97025  2.98466 86.83524
Sn -2.98496  0.00000 88.29484
Sn -5.97001 -0.00003 89.31927
Sn -2.98500  2.98498 90.83891
Sn -5.97001  2.98504 90.03973
Sn -2.98568 -0.00003 91.63346
Sn -5.97050 -0.00029 92.48597
Sn -2.98501  2.98515 94.01707
Sn -5.97000  2.98494 93.27370
Sn -2.98581  0.00070 94.84050
Sn -5.97003  0.00031 95.67081
Sn -2.98500  2.98501 97.30089
Sn -5.97000  2.98506 96.49277
Sn -2.98500  0.00000 98.09992
Sn -5.96999  0.00000 98.91490
Sn -2.98499  2.98500 100.48412
Sn -5.97000  2.98500 99.69234
Sn -2.98494  0.00003 101.30714
Sn -5.97003  0.00006 102.12739
Sn -2.98500  2.98500 103.74216
Sn -5.97001  2.98500 102.95038
Sn -2.98499 -0.00000 104.51961
Sn -5.97001 -0.00000 105.33457
Sn -2.98500  2.98490 106.94172
Sn -5.97000  2.98500 106.13361
Sn -2.98509 -0.00053 107.76363
Sn -5.97092 -0.00020 108.59395
Sn -2.98500  2.98507 110.16081
Sn -5.97000  2.98497 109.41742
Sn -2.98456  0.00038 110.94851
Sn -5.96953 -0.00003 111.80105
Sn -2.98500  2.98498 113.39481
Sn -5.97000  2.98500 112.59561
Sn -2.98498  0.00003 114.11519
Sn -5.97000 -0.00000 115.13966
Sn -2.98461  2.98505 116.59926
Sn -5.97001  2.98500 115.89098
Sn -2.98500  0.00001 117.28054
Sn -5.97001  0.00001 118.49084
Sn -2.98508  2.98500 119.68212
Sn -5.97007  2.98497 118.99491
Sn -2.98500 -0.00000 120.26100
Sn -5.97000  5.96999 -52.44949
Sn -2.98492  8.95503 -51.18219
Sn -5.96988  8.95498 -51.87059
Sn -2.98499  5.97002 -50.67935
Sn -5.97001  5.96993 -49.46904
Sn -2.98499  8.95500 -48.07927
Sn -5.97025  8.95466 -48.78776
Sn -2.98496  5.97000 -47.32816
Sn -5.97001  5.96997 -46.30373
Sn -2.98500  8.95498 -44.78409
Sn -5.97001  8.95504 -45.58327
Sn -2.98568  5.96997 -43.98954
Sn -5.97050  5.96971 -43.13703
Sn -2.98501  8.95515 -41.60593
Sn -5.97000  8.95494 -42.34930
Sn -2.98581  5.97070 -40.78250
Sn -5.97003  5.97031 -39.95219
Sn -2.98500  8.95501 -38.32211
Sn -5.97000  8.95506 -39.13023
Sn -2.98500  5.97000 -37.52308
Sn -5.96999  5.97000 -36.70810
Sn -2.98499  8.95500 -35.13888
Sn -5.97000  8.95500 -35.93066
Sn -2.98494  5.97003 -34.31586
Sn -5.97003  5.97006 -33.49561
Sn -2.98500  8.95500 -31.88084
Sn -5.97001  8.95500 -32.67262
Sn -2.98499  5.97000 -31.10339
Sn -5.97001  5.97000 -30.28843
Sn -2.98500  8.95490 -28.68128
Sn -5.97000  8.95500 -29.48939
Sn -2.98509  5.96947 -27.85937
Sn -5.97092  5.96980 -27.02905
Sn -2.98500  8.95507 -25.46219
Sn -5.97000  8.95497 -26.20558
Sn -2.98456  5.97038 -24.67449
Sn -5.96953  5.96997 -23.82195
Sn -2.98500  8.95498 -22.22819
Sn -5.97000  8.95500 -23.02739
Sn -2.98498  5.97003 -21.50781
Sn -5.97000  5.97000 -20.48334
Sn -2.98461  8.95505 -19.02374
Sn -5.97001  8.95500 -19.73202
Sn -2.98500  5.97001 -18.34246
Sn -5.97001  5.97001 -17.13216
Sn -2.98508  8.95500 -15.94088
Sn -5.97007  8.95497 -16.62809
Sn -2.98500  5.97000 -15.36200
Sn -5.97000  5.96999 15.36201
Sn -2.98492  8.95503 16.62931
Sn -5.96988  8.95498 15.94091
Sn -2.98499  5.97002 17.13215
Sn -5.97001  5.96993 18.34246
Sn -2.98499  8.95500 19.73223
Sn -5.97025  8.95466 19.02374
Sn -2.98496  5.97000 20.48334
Sn -5.97001  5.96997 21.50777
Sn -2.98500  8.95498 23.02741
Sn -5.97001  8.95504 22.22823
Sn -2.98568  5.96997 23.82196
Sn -5.97050  5.96971 24.67447
Sn -2.98501  8.95515 26.20557
Sn -5.97000  8.95494 25.46220
Sn -2.98581  5.97070 27.02900
Sn -5.97003  5.97031 27.85931
Sn -2.98500  8.95501 29.48939
Sn -5.97000  8.95506 28.68127
Sn -2.98500  5.97000 30.28842
Sn -5.96999  5.97000 31.10340
Sn -2.98499  8.95500 32.67262
Sn -5.97000  8.95500 31.88084
Sn -2.98494  5.97003 33.49564
Sn -5.97003  5.97006 34.31589
Sn -2.98500  8.95500 35.93066
Sn -5.97001  8.95500 35.13888
Sn -2.98499  5.97000 36.70811
Sn -5.97001  5.97000 37.52307
Sn -2.98500  8.95490 39.13022
Sn -5.97000  8.95500 38.32211
Sn -2.98509  5.96947 39.95213
Sn -5.97092  5.96980 40.78245
Sn -2.98500  8.95507 42.34931
Sn -5.97000  8.95497 41.60592
Sn -2.98456  5.97038 43.13701
Sn -5.96953  5.96997 43.98955
Sn -2.98500  8.95498 45.58331
Sn -5.97000  8.95500 44.78411
Sn -2.98498  5.97003 46.30369
Sn -5.97000  5.97000 47.32816
Sn -2.98461  8.95505 48.78776
Sn -5.97001  8.95500 48.07948
Sn -2.98500  5.97001 49.46904
Sn -5.97001  5.97001 50.67934
Sn -2.98508  8.95500 51.87062
Sn -5.97007  8.95497 51.18341
Sn -2.98500  5.97000 52.44950
Sn -5.97000  5.96999 83.17351
Sn -2.98492  8.95503 84.44081
Sn -5.96988  8.95498 83.75241
Sn -2.98499  5.97002 84.94365
Sn -5.97001  5.96993 86.15396
Sn -2.98499  8.95500 87.54373
Sn -5.97025  8.95466 86.83524
Sn -2.98496  5.97000 88.29484
Sn -5.97001  5.96997 89.31927
Sn -2.98500  8.95498 90.83891
Sn -5.97001  8.95504 90.03973
Sn -2.98568  5.96997 91.63346
Sn -5.97050  5.96971 92.48597
Sn -2.98501  8.95515 94.01707
Sn -5.97000  8.95494 93.27370
Sn -2.98581  5.97070 94.84050
Sn -5.97003  5.97031 95.67081
Sn -2.98500  8.95501 97.30089
Sn -5.97000  8.95506 96.49277
Sn -2.98500  5.97000 98.09992
Sn -5.96999  5.97000 98.91490
Sn -2.98499  8.95500 100.48412
Sn -5.97000  8.95500 99.69234
Sn -2.98494  5.97003 101.30714
Sn -5.97003  5.97006 102.12739
Sn -2.98500  8.95500 103.74216
Sn -5.97001  8.95500 102.95038
Sn -2.98499  5.97000 104.51961
Sn -5.97001  5.97000 105.33457
Sn -2.98500  8.95490 106.94172
Sn -5.97000  8.95500 106.13361
Sn -2.98509  5.96947 107.76363
Sn -5.97092  5.96980 108.59395
Sn -2.98500  8.95507 110.16081
Sn -5.97000  8.95497 109.41742
Sn -2.98456  5.97038 110.94851
Sn -5.96953  5.96997 111.80105
Sn -2.98500  8.95498 113.39481
Sn -5.97000  8.95500 112.59561
Sn -2.98498  5.97003 114.11519
Sn -5.97000  5.97000 115.13966
Sn -2.98461  8.95505 116.59926
Sn -5.97001  8.95500 115.89098
Sn -2.98500  5.97001 117.28054
Sn -5.97001  5.97001 118.49084
Sn -2.98508  8.95500 119.68212
Sn -5.97007  8.95497 118.99491
Sn -2.98500  5.97000 120.26100
Sn -0.00000 -5.97001 -52.44949
Sn  2.98508 -2.98497 -51.18219
Sn  0.00012 -2.98502 -51.87059
Sn  2.98501 -5.96998 -50.67935
Sn -0.00001 -5.97007 -49.46904
Sn  2.98501 -2.98500 -48.07927
Sn -0.00025 -2.98534 -48.78776
Sn  2.98504 -5.97000 -47.32816
Sn -0.00001 -5.97003 -46.30373
Sn  2.98500 -2.98502 -44.78409
Sn -0.00001 -2.98496 -45.58327
Sn  2.98432 -5.97003 -43.98954
Sn -0.00050 -5.97029 -43.13703
Sn  2.98499 -2.98485 -41.60593
Sn  0.00000 -2.98506 -42.34930
Sn  2.98419 -5.96930 -40.78250
Sn -0.00003 -5.96969 -39.95219
Sn  2.98500 -2.98499 -38.32211
Sn -0.00000 -2.98494 -39.13023
Sn  2.98500 -5.97000 -37.52308
Sn  0.00001 -5.97000 -36.70810
Sn  2.98501 -2.98500 -35.13888
Sn  0.00000 -2.98500 -35.93066
Sn  2.98506 -5.96997 -34.31586
Sn -0.00003 -5.96994 -33.49561
Sn  2.98500 -2.98500 -31.88084
Sn -0.00001 -2.98500 -32.67262
Sn  2.98501 -5.97000 -31.10339
Sn -0.00001 -5.97000 -30.28843
Sn  2.98500 -2.98510 -28.68128
Sn -0.00000 -2.98500 -29.48939
Sn  2.98491 -5.97053 -27.85937
Sn -0.00092 -5.97020 -27.02905
Sn  2.98500 -2.98493 -25.46219
Sn  0.00000 -2.98503 -26.20558
Sn  2.98544 -5.96962 -24.67449
Sn  0.00047 -5.97003 -23.82195
Sn  2.98500 -2.98502 -22.22819
Sn  0.00000 -2.98500 -23.02739
Sn  2.98502 -5.96997 -21.50781
Sn  0.00000 -5.97000 -20.48334
Sn  2.98539 -2.98495 -19.02374
Sn -0.00001 -2.98500 -19.73202
Sn  2.98500 -5.96999 -18.34246
Sn -0.00001 -5.96999 -17.13216
Sn  2.98492 -2.98500 -15.94088
Sn -0.00007 -2.98503 -16.62809
Sn  2.98500 -5.97000 -15.36200
Sn -0.00000 -5.97001 15.36201
Sn  2.98508 -2.98497 16.62931
Sn  0.00012 -2.98502 15.94091
Sn  2.98501 -5.96998 17.13215
Sn -0.00001 -5.97007 18.34246
Sn  2.98501 -2.98500 19.73223
Sn -0.00025 -2.98534 19.02374
Sn  2.98504 -5.97000 20.48334
Sn -0.00001 -5.97003 21.50777
Sn  2.98500 -2.98502 23.02741
Sn -0.00001 -2.98496 22.22823
Sn  2.98432 -5.97003 23.82196
Sn -0.00050 -5.97029 24.67447
Sn  2.98499 -2.98485 26.20557
Sn  0.00000 -2.98506 25.46220
Sn  2.98419 -5.96930 27.02900
Sn -0.00003 -5.96969 27.85931
Sn  2.98500 -2.98499 29.48939
Sn -0.00000 -2.98494 28.68127
Sn  2.98500 -5.97000 30.28842
Sn  0.00001 -5.97000 31.10340
Sn  2.98501 -2.98500 32.67262
Sn  0.00000 -2.98500 31.88084
Sn  2.98506 -5.96997 33.49564
Sn -0.00003 -5.96994 34.31589
Sn  2.98500 -2.98500 35.93066
Sn -0.00001 -2.98500 35.13888
Sn  2.98501 -5.97000 36.70811
Sn -0.00001 -5.97000 37.52307
Sn  2.98500 -2.98510 39.13022
Sn -0.00000 -2.98500 38.32211
Sn  2.98491 -5.97053 39.95213
Sn -0.00092 -5.97020 40.78245
Sn  2.98500 -2.98493 42.34931
Sn  0.00000 -2.98503 41.60592
Sn  2.98544 -5.96962 43.13701
Sn  0.00047 -5.97003 43.98955
Sn  2.98500 -2.98502 45.58331
Sn  0.00000 -2.98500 44.78411
Sn  2.98502 -5.96997 46.30369
Sn  0.00000 -5.97000 47.32816
Sn  2.98539 -2.98495 48.78776
Sn -0.00001 -2.98500 48.07948
Sn  2.98500 -5.96999 49.46904
Sn -0.00001 -5.96999 50.67934
Sn  2.98492 -2.98500 51.87062
Sn -0.00007 -2.98503 51.18341
Sn  2.98500 -5.97000 52.44950
Sn -0.00000 -5.97001 83.17351
Sn  2.98508 -2.98497 84.44081
Sn  0.00012 -2.98502 83.75241
Sn  2.98501 -5.96998 84.94365
Sn -0.00001 -5.97007 86.15396
Sn  2.98501 -2.98500 87.54373
Sn -0.00025 -2.98534 86.83524
Sn  2.98504 -5.97000 88.29484
Sn -0.00001 -5.97003 89.31927
Sn  2.98500 -2.98502 90.83891
Sn -0.00001 -2.98496 90.03973
Sn  2.98432 -5.97003 91.63346
Sn -0.00050 -5.97029 92.48597
Sn  2.98499 -2.98485 94.01707
Sn  0.00000 -2.98506 93.27370
Sn  2.98419 -5.96930 94.84050
Sn -0.00003 -5.96969 95.67081
Sn  2.98500 -2.98499 97.30089
Sn -0.00000 -2.98494 96.49277
Sn  2.98500 -5.97000 98.09992
Sn  0.00001 -5.97000 98.91490
Sn  2.98501 -2.98500 100.48412
Sn  0.00000 -2.98500 99.69234
Sn  2.98506 -5.96997 101.30714
Sn -0.00003 -5.96994 102.12739
Sn  2.98500 -2.98500 103.74216
Sn -0.00001 -2.98500 102.95038
Sn  2.98501 -5.97000 104.51961
Sn -0.00001 -5.97000 105.33457
Sn  2.98500 -2.98510 106.94172
Sn -0.00000 -2.98500 106.13361
Sn  2.98491 -5.97053 107.76363
Sn -0.00092 -5.97020 108.59395
Sn  2.98500 -2.98493 110.16081
Sn  0.00000 -2.98503 109.41742
Sn  2.98544 -5.96962 110.94851
Sn  0.00047 -5.97003 111.80105
Sn  2.98500 -2.98502 113.39481
Sn  0.00000 -2.98500 112.59561
Sn  2.98502 -5.96997 114.11519
Sn  0.00000 -5.97000 115.13966
Sn  2.98539 -2.98495 116.59926
Sn -0.00001 -2.98500 115.89098
Sn  2.98500 -5.96999 117.28054
Sn -0.00001 -5.96999 118.49084
Sn  2.98492 -2.98500 119.68212
Sn -0.00007 -2.98503 118.99491
Sn  2.98500 -5.97000 120.26100
Sn -0.00000 -0.00001 -52.44949
Sn  2.98508  2.98503 -51.18219
Sn  0.00012  2.98498 -51.87059
Sn  2.98501  0.00002 -50.67935
Sn -0.00001 -0.00007 -49.46904
Sn  2.98501  2.98500 -48.07927
Sn -0.00025  2.98466 -48.78776
Sn  2.98504  0.00000 -47.32816
Sn -0.00001 -0.00003 -46.30373
Sn  2.98500  2.98498 -44.78409
Sn -0.00001  2.98504 -45.58327
Sn  2.98432 -0.00003 -43.98954
Sn -0.00050 -0.00029 -43.13703
Sn  2.98499  2.98515 -41.60593
Sn  0.00000  2.98494 -42.34930
Sn  2.98419  0.00070 -40.78250
Sn -0.00003  0.00031 -39.95219
Sn  2.98500  2.98501 -38.32211
Sn -0.00000  2.98506 -39.13023
Sn  2.98500  0.00000 -37.52308
Sn  0.00001  0.00000 -36.70810
Sn  2.98501  2.98500 -35.13888
Sn  0.00000  2.98500 -35.93066
Sn  2.98506  0.00003 -34.31586
Sn -0.00003  0.00006 -33.49561
Sn  2.98500  2.98500 -31.88084
Sn -0.00001  2.98500 -32.67262
Sn  2.98501 -0.00000 -31.10339
Sn -0.00001 -0.00000 -30.28843
Sn  2.98500  2.98490 -28.68128
Sn -0.00000  2.98500 -29.48939
Sn  2.98491 -0.00053 -27.85937
Sn -0.00092 -0.00020 -27.02905
Sn  2.98500  2.98507 -25.46219
Sn  0.00000  2.98497 -26.20558
Sn  2.98544  0.00038 -24.67449
Sn  0.00047 -0.00003 -23.82195
Sn  2.98500  2.98498 -22.22819
Sn  0.00000  2.98500 -23.02739
Sn  2.98502  0.00003 -21.50781
Sn  0.00000 -0.00000 -20.48334
Sn  2.98539  2.98505 -19.02374
Sn -0.00001  2.98500 -19.73202
Sn  2.98500  0.00001 -18.34246
Sn -0.00001  0.00001 -17.13216
Sn  2.98492  2.98500 -15.94088
Sn -0.00007  2.98497 -16.62809
Sn  2.98500 -0.00000 -15.36200
Sn -0.00000 -0.00001 15.36201
Sn  2.98508  2.98503 16.62931
Sn  0.00012  2.98498 15.94091
Sn  2.98501  0.00002 17.13215
Sn -0.00001 -0.00007 18.34246
Sn  2.98501  2.98500 19.73223
Sn -0.00025  2.98466 19.02374
Sn  2.98504  0.00000 20.48334
Sn -0.00001 -0.00003 21.50777
Sn  2.98500  2.98498 23.02741
Sn -0.00001  2.98504 22.22823
Sn  2.98432 -0.00003 23.82196
Sn -0.00050 -0.00029 24.67447
Sn  2.98499  2.98515 26.20557
Sn  0.00000  2.98494 25.46220
Sn  2.98419  0.00070 27.02900
Sn -0.00003  0.00031 27.85931
Sn  2.98500  2.98501 29.48939
Sn -0.00000  2.98506 28.68127
Sn  2.98500  0.00000 30.28842
Sn  0.00001  0.00000 31.10340
Sn  2.98501  2.98500 32.67262
Sn  0.00000  2.98500 31.88084
Sn  2.98506  0.00003 33.49564
Sn -0.00003  0.00006 34.31589
Sn  2.98500  2.98500 35.93066
Sn -0.00001  2.98500 35.13888
Sn  2.98501 -0.00000 36.70811
Sn -0.00001 -0.00000 37.52307
Sn  2.98500  2.98490 39.13022
Sn -0.00000  2.98500 38.32211
Sn  2.98491 -0.00053 39.95213
Sn -0.00092 -0.00020 40.78245
Sn  2.98500  2.98507 42.34931
Sn  0.00000  2.98497 41.60592
Sn  2.98544  0.00038 43.13701
Sn  0.00047 -0.00003 43.98955
Sn  2.98500  2.98498 45.58331
Sn  0.00000  2.98500 44.78411
Sn  2.98502  0.00003 46.30369
Sn  0.00000 -0.00000 47.32816
Sn  2.98539  2.98505 48.78776
Sn -0.00001  2.98500 48.07948
Sn  2.98500  0.00001 49.46904
Sn -0.00001  0.00001 50.67934
Sn  2.98492  2.98500 51.87062
Sn -0.00007  2.98497 51.18341
Sn  2.98500 -0.00000 52.44950
Sn -0.00000 -0.00001 83.17351
Sn  2.98508  2.98503 84.44081
Sn  0.00012  2.98498 83.75241
Sn  2.98501  0.00002 84.94365
Sn -0.00001 -0.00007 86.15396
Sn  2.98501  2.98500 87.54373
Sn -0.00025  2.98466 86.83524
Sn  2.98504  0.00000 88.29484
Sn -0.00001 -0.00003 89.31927
Sn  2.98500  2.98498 90.83891
Sn -0.00001  2.98504 90.03973
Sn  2.98432 -0.00003 91.63346
Sn -0.00050 -0.00029 92.48597
Sn  2.98499  2.98515 94.01707
Sn  0.00000  2.98494 93.27370
Sn  2.98419  0.00070 94.84050
Sn -0.00003  0.00031 95.67081
Sn  2.98500  2.98501 97.30089
Sn -0.00000  2.98506 96.49277
Sn  2.98500  0.00000 98.09992
Sn  0.00001  0.00000 98.91490
Sn  2.98501  2.98500 100.48412
Sn  0.00000  2.98500 99.69234
Sn  2.98506  0.00003 101.30714
Sn -0.00003  0.00006 102.12739
Sn  2.98500  2.98500 103.74216
Sn -0.00001  2.98500 102.95038
Sn  2.98501 -0.00000 104.51961
Sn -0.00001 -0.00000 105.33457
Sn  2.98500  2.98490 106.94172
Sn -0.00000  2.98500 106.13361
Sn  2.98491 -0.00053 107.76363
Sn -0.00092 -0.00020 108.59395
Sn  2.98500  2.98507 110.16081
Sn  0.00000  2.98497 109.41742
Sn  2.98544  0.00038 110.94851
Sn  0.00047 -0.00003 111.80105
Sn  2.98500  2.98498 113.39481
Sn  0.00000  2.98500 112.59561
Sn  2.98502  0.00003 114.11519
Sn  0.00000 -0.00000 115.13966
Sn  2.98539  2.98505 116.59926
Sn -0.00001  2.98500 115.89098
Sn  2.98500  0.00001 117.28054
Sn -0.00001  0.00001 118.49084
Sn  2.98492  2.98500 119.68212
Sn -0.00007  2.98497 118.99491
Sn  2.98500 -0.00000 120.26100
Sn -0.00000  5.96999 -52.44949
Sn  2.98508  8.95503 -51.18219
Sn  0.00012  8.95498 -51.87059
Sn  2.98501  5.97002 -50.67935
Sn -0.00001  5.96993 -49.46904
Sn  2.98501  8.95500 -48.07927
Sn -0.00025  8.95466 -48.78776
Sn  2.98504  5.97000 -47.32816
Sn -0.00001  5.96997 -46.30373
Sn  2.98500  8.95498 -44.78409
Sn -0.00001  8.95504 -45.58327
Sn  2.98432  5.96997 -43.98954
Sn -0.00050  5.96971 -43.13703
Sn  2.98499  8.95515 -41.60593
Sn  0.00000  8.95494 -42.34930
Sn  2.98419  5.97070 -40.78250
Sn -0.00003  5.97031 -39.95219
Sn  2.98500  8.95501 -38.32211
Sn -0.00000  8.95506 -39.13023
Sn  2.98500  5.97000 -37.52308
Sn  0.00001  5.97000 -36.70810
Sn  2.98501  8.95500 -35.13888
Sn  0.00000  8.95500 -35.93066
Sn  2.98506  5.97003 -34.31586
Sn -0.00003  5.97006 -33.49561
Sn  2.98500  8.95500 -31.88084
Sn -0.00001  8.95500 -32.67262
Sn  2.98501  5.97000 -31.10339
Sn -0.00001  5.97000 -30.28843
Sn  2.98500  8.95490 -28.68128
Sn -0.00000  8.95500 -29.48939
Sn  2.98491  5.96947 -27.85937
Sn -0.00092  5.96980 -27.02905
Sn  2.98500  8.95507 -25.46219
Sn  0.00000  8.95497 -26.20558
Sn  2.98544  5.97038 -24.67449
Sn  0.00047  5.96997 -23.82195
Sn  2.98500  8.95498 -22.22819
Sn  0.00000  8.95500 -23.02739
Sn  2.98502  5.97003 -21.50781
Sn  0.00000  5.97000 -20.48334
Sn  2.98539  8.95505 -19.02374
Sn -0.00001  8.95500 -19.73202
Sn  2.98500  5.97001 -18.34246
Sn -0.00001  5.97001 -17.13216
Sn  2.98492  8.95500 -15.94088
Sn -0.00007  8.95497 -16.62809
Sn  2.98500  5.97000 -15.36200
Sn -0.00000  5.96999 15.36201
Sn  2.98508  8.95503 16.62931
Sn  0.00012  8.95498 15.94091
Sn  2.98501  5.97002 17.13215
Sn -0.00001  5.96993 18.34246
Sn  2.98501  8.95500 19.73223
Sn -0.00025  8.95466 19.02374
Sn  2.98504  5.97000 20.48334
Sn -0.00001  5.96997 21.50777
Sn  2.98500  8.95498 23.02741
Sn -0.00001  8.95504 22.22823
Sn  2.98432  5.96997 23.82196
Sn -0.00050  5.96971 24.67447
Sn  2.98499  8.95515 26.20557
Sn  0.00000  8.95494 25.46220
Sn  2.98419  5.97070 27.02900
Sn -0.00003  5.97031 27.85931
Sn  2.98500  8.95501 29.48939
Sn -0.00000  8.95506 28.68127
Sn  2.98500  5.97000 30.28842
Sn  0.00001  5.97000 31.10340
Sn  2.98501  8.95500 32.67262
Sn  0.00000  8.95500 31.88084
Sn  2.98506  5.97003 33.49564
Sn -0.00003  5.97006 34.31589
Sn  2.98500  8.95500 35.93066
Sn -0.00001  8.95500 35.13888
Sn  2.98501  5.97000 36.70811
Sn -0.00001  5.97000 37.52307
Sn  2.98500  8.95490 39.13022
Sn -0.00000  8.95500 38.32211
Sn  2.98491  5.96947 39.95213
Sn -0.00092  5.96980 40.78245
Sn  2.98500  8.95507 42.34931
Sn  0.00000  8.95497 41.60592
Sn  2.98544  5.97038 43.13701
Sn  0.00047  5.96997 43.98955
Sn  2.98500  8.95498 45.58331
Sn  0.00000  8.95500 44.78411
Sn  2.98502  5.97003 46.30369
Sn  0.00000  5.97000 47.32816
Sn  2.98539  8.95505 48.78776
Sn -0.00001  8.95500 48.07948
Sn  2.98500  5.97001 49.46904
Sn -0.00001  5.97001 50.67934
Sn  2.98492  8.95500 51.87062
Sn -0.00007  8.95497 51.18341
Sn  2.98500  5.97000 52.44950
Sn -0.00000  5.96999 83.17351
Sn  2.98508  8.95503 84.44081
Sn  0.00012  8.95498 83.75241
Sn  2.98501  5.97002 84.94365
Sn -0.00001  5.96993 86.15396
Sn  2.98501  8.95500 87.54373
Sn -0.00025  8.95466 86.83524
Sn  2.98504  5.97000 88.29484
Sn -0.00001  5.96997 89.31927
Sn  2.98500  8.95498 90.83891
Sn -0.00001  8.95504 90.03973
Sn  2.98432  5.96997 91.63346
Sn -0.00050  5.96971 92.48597
Sn  2.98499  8.95515 94.01707
Sn  0.00000  8.95494 93.27370
Sn  2.98419  5.97070 94.84050
Sn -0.00003  5.97031 95.67081
Sn  2.98500  8.95501 97.30089
Sn -0.00000  8.95506 96.49277
Sn  2.98500  5.97000 98.09992
Sn  0.00001  5.97000 98.91490
Sn  2.98501  8.95500 100.48412
Sn  0.00000  8.95500 99.69234
Sn  2.98506  5.97003 101.30714
Sn -0.00003  5.97006 102.12739
Sn  2.98500  8.95500 103.74216
Sn -0.00001  8.95500 102.95038
Sn  2.98501  5.97000 104.51961
Sn -0.00001  5.97000 105.33457
Sn  2.98500  8.95490 106.94172
Sn -0.00000  8.95500 106.13361
Sn  2.98491  5.96947 107.76363
Sn -0.00092  5.96980 108.59395
Sn  2.98500  8.95507 110.16081
Sn  0.00000  8.95497 109.41742
Sn  2.98544  5.97038 110.94851
Sn  0.00047  5.96997 111.80105
Sn  2.98500  8.95498 113.39481
Sn  0.00000  8.95500 112.59561
Sn  2.98502  5.97003 114.11519
Sn  0.00000  5.97000 115.13966
Sn  2.98539  8.95505 116.59926
Sn -0.00001  8.95500 115.89098
Sn  2.98500  5.97001 117.28054
Sn -0.00001  5.97001 118.49084
Sn  2.98492  8.95500 119.68212
Sn -0.00007  8.95497 118.99491
Sn  2.98500  5.97000 120.26100
Sn  5.97000 -5.97001 -52.44949
Sn  8.95508 -2.98497 -51.18219
Sn  5.97012 -2.98502 -51.87059
Sn  8.95501 -5.96998 -50.67935
Sn  5.96999 -5.97007 -49.46904
Sn  8.95501 -2.98500 -48.07927
Sn  5.96975 -2.98534 -48.78776
Sn  8.95504 -5.97000 -47.32816
Sn  5.96999 -5.97003 -46.30373
Sn  8.95500 -2.98502 -44.78409
Sn  5.96999 -2.98496 -45.58327
Sn  8.95432 -5.97003 -43.98954
Sn  5.96950 -5.97029 -43.13703
Sn  8.95499 -2.98485 -41.60593
Sn  5.97000 -2.98506 -42.34930
Sn  8.95419 -5.96930 -40.78250
Sn  5.96997 -5.96969 -39.95219
Sn  8.95500 -2.98499 -38.32211
Sn  5.97000 -2.98494 -39.13023
Sn  8.95500 -5.97000 -37.52308
Sn  5.97001 -5.97000 -36.70810
Sn  8.95501 -2.98500 -35.13888
Sn  5.97000 -2.98500 -35.93066
Sn  8.95506 -5.96997 -34.31586
Sn  5.96997 -5.96994 -33.49561
Sn  8.95500 -2.98500 -31.88084
Sn  5.96999 -2.98500 -32.67262
Sn  8.95501 -5.97000 -31.10339
Sn  5.96999 -5.97000 -30.28843
Sn  8.95500 -2.98510 -28.68128
Sn  5.97000 -2.98500 -29.48939
Sn  8.95491 -5.97053 -27.85937
Sn  5.96908 -5.97020 -27.02905
Sn  8.95500 -2.98493 -25.46219
Sn  5.97000 -2.98503 -26.20558
Sn  8.95544 -5.96962 -24.67449
Sn  5.97047 -5.97003 -23.82195
Sn  8.95500 -2.98502 -22.22819
Sn  5.97000 -2.98500 -23.02739
Sn  8.95502 -5.96997 -21.50781
Sn  5.97000 -5.97000 -20.48334
Sn  8.95539 -2.98495 -19.02374
Sn  5.96999 -2.98500 -19.73202
Sn  8.95500 -5.96999 -18.34246
Sn  5.96999 -5.96999 -17.13216
Sn  8.95492 -2.98500 -15.94088
Sn  5.96993 -2.98503 -16.62809
Sn  8.95500 -5.97000 -15.36200
Sn  5.97000 -5.97001 15.36201
Sn  8.95508 -2.98497 16.62931
Sn  5.97012 -2.98502 15.94091
Sn  8.95501 -5.96998 17.13215
Sn  5.96999 -5.97007 18.34246
Sn  8.95501 -2.98500 19.73223
Sn  5.96975 -2.98534 19.02374
Sn  8.95504 -5.97000 20.48334
Sn  5.96999 -5.97003 21.50777
Sn  8.95500 -2.98502 23.02741
Sn  5.96999 -2.98496 22.22823
Sn  8.95432 -5.97003 23.82196
Sn  5.96950 -5.97029 24.67447
Sn  8.95499 -2.98485 26.20557
Sn  5.97000 -2.98506 25.46220
Sn  8.95419 -5.96930 27.02900
Sn  5.96997 -5.96969 27.85931
Sn  8.95500 -2.98499 29.48939
Sn  5.97000 -2.98494 28.68127
Sn  8.95500 -5.97000 30.28842
Sn  5.97001 -5.97000 31.10340
Sn  8.95501 -2.98500 32.67262
Sn  5.97000 -2.98500 31.88084
Sn  8.95506 -5.96997 33.49564
Sn  5.96997 -5.96994 34.31589
Sn  8.95500 -2.98500 35.93066
Sn  5.96999 -2.98500 35.13888
Sn  8.95501 -5.97000 36.70811
Sn  5.96999 -5.97000 37.52307
Sn  8.95500 -2.98510 39.13022
Sn  5.97000 -2.98500 38.32211
Sn  8.95491 -5.97053 39.95213
Sn  5.96908 -5.97020 40.78245
Sn  8.95500 -2.98493 42.34931
Sn  5.97000 -2.98503 41.60592
Sn  8.95544 -5.96962 43.13701
Sn  5.97047 -5.97003 43.98955
Sn  8.95500 -2.98502 45.58331
Sn  5.97000 -2.98500 44.78411
Sn  8.95502 -5.96997 46.30369
Sn  5.97000 -5.97000 47.32816
Sn  8.95539 -2.98495 48.78776
Sn  5.96999 -2.98500 48.07948
Sn  8.95500 -5.96999 49.46904
Sn  5.96999 -5.96999 50.67934
Sn  8.95492 -2.98500 51.87062
Sn  5.96993 -2.98503 51.18341
Sn  8.95500 -5.97000 52.44950
Sn  5.97000 -5.97001 83.17351
Sn  8.95508 -2.98497 84.44081
Sn  5.97012 -2.98502 83.75241
Sn  8.95501 -5.96998 84.94365
Sn  5.96999 -5.97007 86.15396
Sn  8.95501 -2.98500 87.54373
Sn  5.96975 -2.98534 86.83524
Sn  8.95504 -5.97000 88.29484
Sn  5.96999 -5.97003 89.31927
Sn  8.95500 -2.98502 90.83891
Sn  5.96999 -2.98496 90.03973
Sn  8.95432 -5.97003 91.63346
Sn  5.96950 -5.97029 92.48597
Sn  8.95499 -2.98485 94.01707
Sn  5.97000 -2.98506 93.27370
Sn  8.95419 -5.96930 94.84050
Sn  5.96997 -5.96969 95.67081
Sn  8.95500 -2.98499 97.30089
Sn  5.97000 -2.98494 96.49277
Sn  8.95500 -5.97000 98.09992
Sn  5.97001 -5.97000 98.91490
Sn  8.95501 -2.98500 100.48412
Sn  5.97000 -2.98500 99.69234
Sn  8.95506 -5.96997 101.30714
Sn  5.96997 -5.96994 102.12739
Sn  8.95500 -2.98500 103.74216
Sn  5.96999 -2.98500 102.95038
Sn  8.95501 -5.97000 104.51961
Sn  5.96999 -5.97000 105.33457
Sn  8.95500 -2.98510 106.94172
Sn  5.97000 -2.98500 106.13361
Sn  8.95491 -5.97053 107.76363
Sn  5.96908 -5.97020 108.59395
Sn  8.95500 -2.98493 110.16081
Sn  5.97000 -2.98503 109.41742
Sn  8.95544 -5.96962 110.94851
Sn  5.97047 -5.97003 111.80105
Sn  8.95500 -2.98502 113.39481
Sn  5.97000 -2.98500 112.59561
Sn  8.95502 -5.96997 114.11519
Sn  5.97000 -5.97000 115.13966
Sn  8.95539 -2.98495 116.59926
Sn  5.96999 -2.98500 115.89098
Sn  8.95500 -5.96999 117.28054
Sn  5.96999 -5.96999 118.49084
Sn  8.95492 -2.98500 119.68212
Sn  5.96993 -2.98503 118.99491
Sn  8.95500 -5.97000 120.26100
Sn  5.97000 -0.00001 -52.44949
Sn  8.95508  2.98503 -51.18219
Sn  5.97012  2.98498 -51.87059
Sn  8.95501  0.00002 -50.67935
Sn  5.96999 -0.00007 -49.46904
Sn  8.95501  2.98500 -48.07927
Sn  5.96975  2.98466 -48.78776
Sn  8.95504  0.00000 -47.32816
Sn  5.96999 -0.00003 -46.30373
Sn  8.95500  2.98498 -44.78409
Sn  5.96999  2.98504 -45.58327
Sn  8.95432 -0.00003 -43.98954
Sn  5.96950 -0.00029 -43.13703
Sn  8.95499  2.98515 -41.60593
Sn  5.97000  2.98494 -42.34930
Sn  8.95419  0.00070 -40.78250
Sn  5.96997  0.00031 -39.95219
Sn  8.95500  2.98501 -38.32211
Sn  5.97000  2.98506 -39.13023
Sn  8.95500  0.00000 -37.52308
Sn  5.97001  0.00000 -36.70810
Sn  8.95501  2.98500 -35.13888
Sn  5.97000  2.98500 -35.93066
Sn  8.95506  0.00003 -34.31586
Sn  5.96997  0.00006 -33.49561
Sn  8.95500  2.98500 -31.88084
Sn  5.96999  2.98500 -32.67262
Sn  8.95501 -0.00000 -31.10339
Sn  5.96999 -0.00000 -30.28843
Sn  8.95500  2.98490 -28.68128
Sn  5.97000  2.98500 -29.48939
Sn  8.95491 -0.00053 -27.85937
Sn  5.96908 -0.00020 -27.02905
Sn  8.95500  2.98507 -25.46219
Sn  5.97000  2.98497 -26.20558
Sn  8.95544  0.00038 -24.67449
Sn  5.97047 -0.00003 -23.82195
Sn  8.95500  2.98498 -22.22819
Sn  5.97000  2.98500 -23.02739
Sn  8.95502  0.00003 -21.50781
Sn  5.97000 -0.00000 -20.48334
Sn  8.95539  2.98505 -19.02374
Sn  5.96999  2.98500 -19.73202
Sn  8.95500  0.00001 -18.34246
Sn  5.96999  0.00001 -17.13216
Sn  8.95492  2.98500 -15.94088
Sn  5.96993  2.98497 -16.62809
Sn  8.95500 -0.00000 -15.36200
Sn  5.97000 -0.00001 15.36201
Sn  8.95508  2.98503 16.62931
Sn  5.97012  2.98498 15.94091
Sn  8.95501  0.00002 17.13215
Sn  5.96999 -0.00007 18.34246
Sn  8.95501  2.98500 19.73223
Sn  5.96975  2.98466 19.02374
Sn  8.95504  0.00000 20.48334
Sn  5.96999 -0.00003 21.50777
Sn  8.95500  2.98498 23.02741
Sn  5.96999  2.98504 22.22823
Sn  8.95432 -0.00003 23.82196
Sn  5.96950 -0.00029 24.67447
Sn  8.95499  2.98515 26.20557
Sn  5.97000  2.98494 25.46220
Sn  8.95419  0.00070 27.02900
Sn  5.96997  0.00031 27.85931
Sn  8.95500  2.98501 29.48939
Sn  5.97000  2.98506 28.68127
Sn  8.95500  0.00000 30.28842
Sn  5.97001  0.00000 31.10340
Sn  8.95501  2.98500 32.67262
Sn  5.97000  2.98500 31.88084
Sn  8.95506  0.00003 33.49564
Sn  5.96997  0.00006 34.31589
Sn  8.95500  2.98500 35.93066
Sn  5.96999  2.98500 35.13888
Sn  8.95501 -0.00000 36.70811
Sn  5.96999 -0.00000 37.52307
Sn  8.95500  2.98490 39.13022
Sn  5.97000  2.98500 38.32211
Sn  8.95491 -0.00053 39.95213
Sn  5.96908 -0.00020 40.78245
Sn  8.95500  2.98507 42.34931
Sn  5.97000  2.98497 41.60592
Sn  8.95544  0.00038 43.13701
Sn  5.97047 -0.00003 43.98955
Sn  8.95500  2.98498 45.58331
Sn  5.97000  2.98500 44.78411
Sn  8.95502  0.00003 46.30369
Sn  5.97000 -0.00000 47.32816
Sn  8.95539  2.98505 48.78776
Sn  5.96999  2.98500 48.07948
Sn  8.95500  0.00001 49.46904
Sn  5.96999  0.00001 50.67934
Sn  8.95492  2.98500 51.87062
Sn  5.96993  2.98497 51.18341
Sn  8.95500 -0.00000 52.44950
Sn  5.97000 -0.00001 83.17351
Sn  8.95508  2.98503 84.44081
Sn  5.97012  2.98498 83.75241
Sn  8.95501  0.00002 84.94365
Sn  5.96999 -0.00007 86.15396
Sn  8.95501  2.98500 87.54373
Sn  5.96975  2.98466 86.83524
Sn  8.95504  0.00000 88.29484
Sn  5.96999 -0.00003 89.31927
Sn  8.95500  2.98498 90.83891
Sn  5.96999  2.98504 90.03973
Sn  8.95432 -0.00003 91.63346
Sn  5.96950 -0.00029 92.48597
Sn  8.95499  2.98515 94.01707
Sn  5.97000  2.98494 93.27370
Sn  8.95419  0.00070 94.84050
Sn  5.96997  0.00031 95.67081
Sn  8.95500  2.98501 97.30089
Sn  5.97000  2.98506 96.49277
Sn  8.95500  0.00000 98.09992
Sn  5.97001  0.00000 98.91490
Sn  8.95501  2.98500 100.48412
Sn  5.97000  2.98500 99.69234
Sn  8.95506  0.00003 101.30714
Sn  5.96997  0.00006 102.12739
Sn  8.95500  2.98500 103.74216
Sn  5.96999  2.98500 102.95038
Sn  8.95501 -0.00000 104.51961
Sn  5.96999 -0.00000 105.33457
Sn  8.95500  2.98490 106.94172
Sn  5.97000  2.98500 106.13361
Sn  8.95491 -0.00053 107.76363
Sn  5.96908 -0.00020 108.59395
Sn  8.95500  2.98507 110.16081
Sn  5.97000  2.98497 109.41742
Sn  8.95544  0.00038 110.94851
Sn  5.97047 -0.00003 111.80105
Sn  8.95500  2.98498 113.39481
Sn  5.97000  2.98500 112.59561
Sn  8.95502  0.00003 114.11519
Sn  5.97000 -0.00000 115.13966
Sn  8.95539  2.98505 116.59926
Sn  5.96999  2.98500 115.89098
Sn  8.95500  0.00001 117.28054
Sn  5.96999  0.00001 118.49084
Sn  8.95492  2.98500 119.68212
Sn  5.96993  2.98497 118.99491
Sn  8.95500 -0.00000 120.26100
Sn  5.97000  5.96999 -52.44949
Sn  8.95508  8.95503 -51.18219
Sn  5.97012  8.95498 -51.87059
Sn  8.95501  5.97002 -50.67935
Sn  5.96999  5.96993 -49.46904
Sn  8.95501  8.95500 -48.07927
Sn  5.96975  8.95466 -48.78776
Sn  8.95504  5.97000 -47.32816
Sn  5.96999  5.96997 -46.30373
Sn  8.95500  8.95498 -44.78409
Sn  5.96999  8.95504 -45.58327
Sn  8.95432  5.96997 -43.98954
Sn  5.96950  5.96971 -43.13703
Sn  8.95499  8.95515 -41.60593
Sn  5.97000  8.95494 -42.34930
Sn  8.95419  5.97070 -40.78250
Sn  5.96997  5.97031 -39.95219
Sn  8.95500  8.95501 -38.32211
Sn  5.97000  8.95506 -39.13023
Sn  8.95500  5.97000 -37.52308
Sn  5.97001  5.97000 -36.70810
Sn  8.95501  8.95500 -35.13888
Sn  5.97000  8.95500 -35.93066
Sn  8.95506  5.97003 -34.31586
Sn  5.96997  5.97006 -33.49561
Sn  8.95500  8.95500 -31.88084
Sn  5.96999  8.95500 -32.67262
Sn  8.95501  5.97000 -31.10339
Sn  5.96999  5.97000 -30.28843
Sn  8.95500  8.95490 -28.68128
Sn  5.97000  8.95500 -29.48939
Sn  8.95491  5.96947 -27.85937
Sn  5.96908  5.96980 -27.02905
Sn  8.95500  8.95507 -25.46219
Sn  5.97000  8.95497 -26.20558
Sn  8.95544  5.97038 -24.67449
Sn  5.97047  5.96997 -23.82195
Sn  8.95500  8.95498 -22.22819
Sn  5.97000  8.95500 -23.02739
Sn  8.95502  5.97003 -21.50781
Sn  5.97000  5.97000 -20.48334
Sn  8.95539  8.95505 -19.02374
Sn  5.96999  8.95500 -19.73202
Sn  8.95500  5.97001 -18.34246
Sn  5.96999  5.97001 -17.13216
Sn  8.95492  8.95500 -15.94088
Sn  5.96993  8.95497 -16.62809
Sn  8.95500  5.97000 -15.36200
Sn  5.97000  5.96999 15.36201
Sn  8.95508  8.95503 16.62931
Sn  5.97012  8.95498 15.94091
Sn  8.95501  5.97002 17.13215
Sn  5.96999  5.96993 18.34246
Sn  8.95501  8.95500 19.73223
Sn  5.96975  8.95466 19.02374
Sn  8.95504  5.97000 20.48334
Sn  5.96999  5.96997 21.50777
Sn  8.95500  8.95498 23.02741
Sn  5.96999  8.95504 22.22823
Sn  8.95432  5.96997 23.82196
Sn  5.96950  5.96971 24.67447
Sn  8.95499  8.95515 26.20557
Sn  5.97000  8.95494 25.46220
Sn  8.95419  5.97070 27.02900
Sn  5.96997  5.97031 27.85931
Sn  8.95500  8.95501 29.48939
Sn  5.97000  8.95506 28.68127
Sn  8.95500  5.97000 30.28842
Sn  5.97001  5.97000 31.10340
Sn  8.95501  8.95500 32.67262
Sn  5.97000  8.95500 31.88084
Sn  8.95506  5.97003 33.49564
Sn  5.96997  5.97006 34.31589
Sn  8.95500  8.95500 35.93066
Sn  5.96999  8.95500 35.13888
Sn  8.95501  5.97000 36.70811
Sn  5.96999  5.97000 37.52307
Sn  8.95500  8.95490 39.13022
Sn  5.97000  8.95500 38.32211
Sn  8.95491  5.96947 39.95213
Sn  5.96908  5.96980 40.78245
Sn  8.95500  8.95507 42.34931
Sn  5.97000  8.95497 41.60592
Sn  8.95544  5.97038 43.13701
Sn  5.97047  5.96997 43.98955
Sn  8.95500  8.95498 45.58331
Sn  5.97000  8.95500 44.78411
Sn  8.95502  5.97003 46.30369
Sn  5.97000  5.97000 47.32816
Sn  8.95539  8.95505 48.78776
Sn  5.96999  8.95500 48.07948
Sn  8.95500  5.97001 49.46904
Sn  5.96999  5.97001 50.67934
Sn  8.95492  8.95500 51.87062
Sn  5.96993  8.95497 51.18341
Sn  8.95500  5.97000 52.44950
Sn  5.97000  5.96999 83.17351
Sn  8.95508  8.95503 84.44081
Sn  5.97012  8.95498 83.75241
Sn  8.95501  5.97002 84.94365
Sn  5.96999  5.96993 86.15396
Sn  8.95501  8.95500 87.54373
Sn  5.96975  8.95466 86.83524
Sn  8.95504  5.97000 88.29484
Sn  5.96999  5.96997 89.31927
Sn  8.95500  8.95498 90.83891
Sn  5.96999  8.95504 90.03973
Sn  8.95432  5.96997 91.63346
Sn  5.96950  5.96971 92.48597
Sn  8.95499  8.95515 94.01707
Sn  5.97000  8.95494 93.27370
Sn  8.95419  5.97070 94.84050
Sn  5.96997  5.97031 95.67081
Sn  8.95500  8.95501 97.30089
Sn  5.97000  8.95506 96.49277
Sn  8.95500  5.97000 98.09992
Sn  5.97001  5.97000 98.91490
Sn  8.95501  8.95500 100.48412
Sn  5.97000  8.95500 99.69234
Sn  8.95506  5.97003 101.30714
Sn  5.96997  5.97006 102.12739
Sn  8.95500  8.95500 103.74216
Sn  5.96999  8.95500 102.95038
Sn  8.95501  5.97000 104.51961
Sn  5.96999  5.97000 105.33457
Sn  8.95500  8.95490 106.94172
Sn  5.97000  8.95500 106.13361
Sn  8.95491  5.96947 107.76363
Sn  5.96908  5.96980 108.59395
Sn  8.95500  8.95507 110.16081
Sn  5.97000  8.95497 109.41742
Sn  8.95544  5.97038 110.94851
Sn  5.97047  5.96997 111.80105
Sn  8.95500  8.95498 113.39481
Sn  5.97000  8.95500 112.59561
Sn  8.95502  5.97003 114.11519
Sn  5.97000  5.97000 115.13966
Sn  8.95539  8.95505 116.59926
Sn  5.96999  8.95500 115.89098
Sn  8.95500  5.97001 117.28054
Sn  5.96999  5.97001 118.49084
Sn  8.95492  8.95500 119.68212
Sn  5.96993  8.95497 118.99491
Sn  8.95500  5.97000 120.26100
