48 

Sn   -0.00000  -0.00001  15.36201  -0.000000751432644  -0.000001262949731   0.000126012941895
Sn    2.98508   2.98503  16.62931   0.000011242186636   0.000007327884139  -0.000142248138215
Sn    0.00012   2.98498  15.94091   0.000043225248199  -0.000005035374084   0.000002248958650
Sn    2.98501   0.00002  17.13215   0.000003824281866   0.000002890724931   0.000162565332051
Sn   -0.00001  -0.00007  18.34246  -0.000003468855636  -0.000005084485467  -0.000120609904717
Sn    2.98501   2.98500  19.73223   0.000018640642805   0.000000327403293  -0.000045697250387
Sn   -0.00025   2.98466  19.02374   0.000017606318089   0.000028856403771   0.000067806333425
Sn    2.98504   0.00000  20.48334   0.000014688532325   0.000001315394478   0.000079386815789
Sn   -0.00001  -0.00003  21.50777   0.000001345012900   0.000002969090249  -0.000220699996681
Sn    2.98500   2.98498  23.02741  -0.000000542628901  -0.000001537648896  -0.000083085061154
Sn   -0.00001   2.98504  22.22823  -0.000001633359385   0.000019221692355   0.000042765752745
Sn    2.98432  -0.00003  23.82196   0.000026997609507  -0.000003928247299   0.000052419911189
Sn   -0.00050  -0.00029  24.67447   0.000081021120734   0.000037252151674  -0.000120892385940
Sn    2.98499   2.98515  26.20557  -0.000000000993236  -0.000021007089964  -0.000050334640592
Sn    0.00000   2.98494  25.46220   0.000001068583310  -0.000008348819903   0.000140009388802
Sn    2.98419   0.00070  27.02900  -0.000058363565166   0.000039862567316   0.000136659329759
Sn   -0.00003   0.00031  27.85931   0.000045947542585  -0.000007904057004   0.000097044026084
Sn    2.98500   2.98501  29.48939  -0.000000187671853   0.000000372635289   0.000091278556109
Sn   -0.00000   2.98506  28.68127   0.000000724529249  -0.000004716629592   0.000109112940549
Sn    2.98500   0.00000  30.28842  -0.000000298158777   0.000000477620752  -0.000121995197836
Sn    0.00001   0.00000  31.10340  -0.000000229008675  -0.000000103509334  -0.000047696378021
Sn    2.98501   2.98500  32.67262   0.000002453435828  -0.000001801751787   0.000236198121201
Sn    0.00000   2.98500  31.88084   0.000000261497593  -0.000000718162015  -0.000100653080220
Sn    2.98506   0.00003  33.49564   0.000027005515326   0.000014583183925   0.000148445136668
Sn   -0.00003   0.00006  34.31589  -0.000014677777925   0.000025111294936  -0.000136229131233
Sn    2.98500   2.98500  35.93066  -0.000000052350740  -0.000000284664782   0.000099786608348
Sn   -0.00001   2.98500  35.13888  -0.000001275380587  -0.000003942854693  -0.000239257999380
Sn    2.98501  -0.00000  36.70811   0.000000481663734   0.000000049816370   0.000047703621513
Sn   -0.00001  -0.00000  37.52307  -0.000000225474540  -0.000000300445892   0.000120891578761
Sn    2.98500   2.98490  39.13022   0.000001431096773   0.000005798916122  -0.000109163805909
Sn   -0.00000   2.98500  38.32211   0.000000089335693   0.000000544127499  -0.000091347363169
Sn    2.98491  -0.00053  39.95213   0.000056436362821  -0.000007047505673  -0.000083114758374
Sn   -0.00092  -0.00020  40.78245  -0.000045174464622   0.000004881409657  -0.000132075927798
Sn    2.98500   2.98507  42.34931  -0.000000723806475   0.000010789491630  -0.000137390863113
Sn    0.00000   2.98497  41.60592   0.000000914316612   0.000000852709696   0.000062296110887
Sn    2.98544   0.00038  43.13701  -0.000065842303652  -0.000043583993626   0.000112807290962
Sn    0.00047  -0.00003  43.98955  -0.000036709751621   0.000002711305892  -0.000056018708897
Sn    2.98500   2.98498  45.58331   0.000000753573337  -0.000009905366272  -0.000026557938124
Sn    0.00000   2.98500  44.78411   0.000001028110795  -0.000000055117280   0.000082463840291
Sn    2.98502   0.00003  46.30369  -0.000005601071842  -0.000003065323078   0.000219668593654
Sn    0.00000  -0.00000  47.32816   0.000000569518732  -0.000000083175167  -0.000082382590724
Sn    2.98539   2.98505  48.78776  -0.000031724863274  -0.000005125428275  -0.000070671172814
Sn   -0.00001   2.98500  48.07948  -0.000026662247254  -0.000001225130657   0.000029892162785
Sn    2.98500   0.00001  49.46904   0.000001160625991  -0.000000234002465   0.000120250468039
Sn   -0.00001   0.00001  50.67934  -0.000002681440895   0.000005958315484  -0.000162661471046
Sn    2.98492   2.98500  51.87062  -0.000027862675443  -0.000001231644222   0.000012737831054
Sn   -0.00007   2.98497  51.18341  -0.000006238366960  -0.000007212359652   0.000148007528233
Sn    2.98500  -0.00000  52.44950   0.000001160311247  -0.000000053469463  -0.000121547565346
