1296

Sn  0.00541 -0.01633 -83.43451
Sn -2.97679 -1.58239 -80.50440
Sn -2.97959 -2.39717 -83.43451
Sn -5.96179 -0.83111 -80.50440
Sn -5.96323 -0.01267 -77.49288
Sn -2.97703 -1.57047 -74.54704
Sn -2.97823 -2.40083 -77.49289
Sn -5.96202 -0.84302 -74.54704
Sn -5.96515 -0.01286 -71.58060
Sn -2.98184 -1.57579 -68.62102
Sn -2.98015 -2.40063 -71.58061
Sn -5.96684 -0.83771 -68.62103
Sn -5.96662 -0.01235 -65.63219
Sn -2.98003 -1.56591 -62.66854
Sn -2.98162 -2.40115 -65.63219
Sn -5.96503 -0.84759 -62.66854
Sn -5.96517 -0.01228 -59.71074
Sn -2.98196 -1.57288 -56.74677
Sn -2.98017 -2.40116 -59.71071
Sn -5.96696 -0.84062 -56.74678
Sn -5.96494 -0.01455 -53.76721
Sn -2.97998 -1.56616 -50.80660
Sn -2.97994 -2.39895 -53.76721
Sn -5.96498 -0.84734 -50.80660
Sn -5.96513 -0.00971 -47.85069
Sn -2.98015 -1.57564 -44.88635
Sn -2.98013 -2.40379 -47.85069
Sn -5.96515 -0.83786 -44.88635
Sn -5.96499 -0.01450 -41.90522
Sn -2.97999 -1.56850 -38.94327
Sn -2.97999 -2.39900 -41.90522
Sn -5.96499 -0.84500 -38.94327
Sn -5.96499 -0.00952 -35.98784
Sn -2.97656 -1.57221 -33.01941
Sn -2.97999 -2.40398 -35.98784
Sn -5.96156 -0.84129 -33.01941
Sn -5.96453 -0.01153 -30.03427
Sn -2.97957 -1.57556 -27.07755
Sn -2.97953 -2.40197 -30.03427
Sn -5.96456 -0.83793 -27.07754
Sn -5.96486 -0.01160 -24.10912
Sn -2.98155 -1.56803 -21.16085
Sn -2.97986 -2.40190 -24.10912
Sn -5.96655 -0.84548 -21.16086
Sn -5.96488 -0.01847 -18.15566
Sn -2.98018 -1.66950 -15.21193
Sn -2.97988 -2.39504 -18.15567
Sn -5.96518 -0.74400 -15.21192
Sn  0.00541 -0.01633 15.22049
Sn -2.97679 -1.58239 18.15060
Sn -2.97959 -2.39717 15.22049
Sn -5.96179 -0.83111 18.15060
Sn -5.96323 -0.01267 21.16212
Sn -2.97703 -1.57047 24.10796
Sn -2.97823 -2.40083 21.16211
Sn -5.96202 -0.84302 24.10796
Sn -5.96515 -0.01286 27.07440
Sn -2.98184 -1.57579 30.03398
Sn -2.98015 -2.40063 27.07439
Sn -5.96684 -0.83771 30.03397
Sn -5.96662 -0.01235 33.02281
Sn -2.98003 -1.56591 35.98646
Sn -2.98162 -2.40115 33.02281
Sn -5.96503 -0.84759 35.98646
Sn -5.96517 -0.01228 38.94426
Sn -2.98196 -1.57288 41.90823
Sn -2.98017 -2.40116 38.94429
Sn -5.96696 -0.84062 41.90822
Sn -5.96494 -0.01455 44.88779
Sn -2.97998 -1.56616 47.84840
Sn -2.97994 -2.39895 44.88779
Sn -5.96498 -0.84734 47.84840
Sn -5.96513 -0.00971 50.80431
Sn -2.98015 -1.57564 53.76865
Sn -2.98013 -2.40379 50.80431
Sn -5.96515 -0.83786 53.76865
Sn -5.96499 -0.01450 56.74978
Sn -2.97999 -1.56850 59.71173
Sn -2.97999 -2.39900 56.74978
Sn -5.96499 -0.84500 59.71173
Sn -5.96499 -0.00952 62.66716
Sn -2.97656 -1.57221 65.63559
Sn -2.97999 -2.40398 62.66716
Sn -5.96156 -0.84129 65.63559
Sn -5.96453 -0.01153 68.62073
Sn -2.97957 -1.57556 71.57745
Sn -2.97953 -2.40197 68.62073
Sn -5.96456 -0.83793 71.57746
Sn -5.96486 -0.01160 74.54588
Sn -2.98155 -1.56803 77.49415
Sn -2.97986 -2.40190 74.54588
Sn -5.96655 -0.84548 77.49414
Sn -5.96488 -0.01847 80.49934
Sn -2.98018 -1.66950 83.44307
Sn -2.97988 -2.39504 80.49933
Sn -5.96518 -0.74400 83.44308
Sn  0.00541 -0.01633 113.87549
Sn -2.97679 -1.58239 116.80560
Sn -2.97959 -2.39717 113.87549
Sn -5.96179 -0.83111 116.80560
Sn -5.96323 -0.01267 119.81712
Sn -2.97703 -1.57047 122.76296
Sn -2.97823 -2.40083 119.81711
Sn -5.96202 -0.84302 122.76296
Sn -5.96515 -0.01286 125.72940
Sn -2.98184 -1.57579 128.68898
Sn -2.98015 -2.40063 125.72939
Sn -5.96684 -0.83771 128.68897
Sn -5.96662 -0.01235 131.67781
Sn -2.98003 -1.56591 134.64146
Sn -2.98162 -2.40115 131.67781
Sn -5.96503 -0.84759 134.64146
Sn -5.96517 -0.01228 137.59926
Sn -2.98196 -1.57288 140.56323
Sn -2.98017 -2.40116 137.59929
Sn -5.96696 -0.84062 140.56322
Sn -5.96494 -0.01455 143.54279
Sn -2.97998 -1.56616 146.50340
Sn -2.97994 -2.39895 143.54279
Sn -5.96498 -0.84734 146.50340
Sn -5.96513 -0.00971 149.45931
Sn -2.98015 -1.57564 152.42365
Sn -2.98013 -2.40379 149.45931
Sn -5.96515 -0.83786 152.42365
Sn -5.96499 -0.01450 155.40478
Sn -2.97999 -1.56850 158.36673
Sn -2.97999 -2.39900 155.40478
Sn -5.96499 -0.84500 158.36673
Sn -5.96499 -0.00952 161.32216
Sn -2.97656 -1.57221 164.29059
Sn -2.97999 -2.40398 161.32216
Sn -5.96156 -0.84129 164.29059
Sn -5.96453 -0.01153 167.27573
Sn -2.97957 -1.57556 170.23245
Sn -2.97953 -2.40197 167.27573
Sn -5.96456 -0.83793 170.23246
Sn -5.96486 -0.01160 173.20088
Sn -2.98155 -1.56803 176.14915
Sn -2.97986 -2.40190 173.20088
Sn -5.96655 -0.84548 176.14914
Sn -5.96488 -0.01847 179.15434
Sn -2.98018 -1.66950 182.09807
Sn -2.97988 -2.39504 179.15433
Sn -5.96518 -0.74400 182.09808
Sn  0.00541  3.20167 -83.43451
Sn -2.97679  1.63561 -80.50440
Sn -2.97959  0.82083 -83.43451
Sn -5.96179  2.38689 -80.50440
Sn -5.96323  3.20533 -77.49288
Sn -2.97703  1.64753 -74.54704
Sn -2.97823  0.81717 -77.49289
Sn -5.96202  2.37498 -74.54704
Sn -5.96515  3.20514 -71.58060
Sn -2.98184  1.64221 -68.62102
Sn -2.98015  0.81737 -71.58061
Sn -5.96684  2.38029 -68.62103
Sn -5.96662  3.20565 -65.63219
Sn -2.98003  1.65209 -62.66854
Sn -2.98162  0.81685 -65.63219
Sn -5.96503  2.37041 -62.66854
Sn -5.96517  3.20572 -59.71074
Sn -2.98196  1.64512 -56.74677
Sn -2.98017  0.81684 -59.71071
Sn -5.96696  2.37738 -56.74678
Sn -5.96494  3.20345 -53.76721
Sn -2.97998  1.65184 -50.80660
Sn -2.97994  0.81905 -53.76721
Sn -5.96498  2.37066 -50.80660
Sn -5.96513  3.20829 -47.85069
Sn -2.98015  1.64236 -44.88635
Sn -2.98013  0.81421 -47.85069
Sn -5.96515  2.38014 -44.88635
Sn -5.96499  3.20350 -41.90522
Sn -2.97999  1.64950 -38.94327
Sn -2.97999  0.81900 -41.90522
Sn -5.96499  2.37300 -38.94327
Sn -5.96499  3.20848 -35.98784
Sn -2.97656  1.64579 -33.01941
Sn -2.97999  0.81402 -35.98784
Sn -5.96156  2.37671 -33.01941
Sn -5.96453  3.20647 -30.03427
Sn -2.97957  1.64244 -27.07755
Sn -2.97953  0.81603 -30.03427
Sn -5.96456  2.38007 -27.07754
Sn -5.96486  3.20640 -24.10912
Sn -2.98155  1.64997 -21.16085
Sn -2.97986  0.81610 -24.10912
Sn -5.96655  2.37252 -21.16086
Sn -5.96488  3.19953 -18.15566
Sn -2.98018  1.54850 -15.21193
Sn -2.97988  0.82296 -18.15567
Sn -5.96518  2.47400 -15.21192
Sn  0.00541  3.20167 15.22049
Sn -2.97679  1.63561 18.15060
Sn -2.97959  0.82083 15.22049
Sn -5.96179  2.38689 18.15060
Sn -5.96323  3.20533 21.16212
Sn -2.97703  1.64753 24.10796
Sn -2.97823  0.81717 21.16211
Sn -5.96202  2.37498 24.10796
Sn -5.96515  3.20514 27.07440
Sn -2.98184  1.64221 30.03398
Sn -2.98015  0.81737 27.07439
Sn -5.96684  2.38029 30.03397
Sn -5.96662  3.20565 33.02281
Sn -2.98003  1.65209 35.98646
Sn -2.98162  0.81685 33.02281
Sn -5.96503  2.37041 35.98646
Sn -5.96517  3.20572 38.94426
Sn -2.98196  1.64512 41.90823
Sn -2.98017  0.81684 38.94429
Sn -5.96696  2.37738 41.90822
Sn -5.96494  3.20345 44.88779
Sn -2.97998  1.65184 47.84840
Sn -2.97994  0.81905 44.88779
Sn -5.96498  2.37066 47.84840
Sn -5.96513  3.20829 50.80431
Sn -2.98015  1.64236 53.76865
Sn -2.98013  0.81421 50.80431
Sn -5.96515  2.38014 53.76865
Sn -5.96499  3.20350 56.74978
Sn -2.97999  1.64950 59.71173
Sn -2.97999  0.81900 56.74978
Sn -5.96499  2.37300 59.71173
Sn -5.96499  3.20848 62.66716
Sn -2.97656  1.64579 65.63559
Sn -2.97999  0.81402 62.66716
Sn -5.96156  2.37671 65.63559
Sn -5.96453  3.20647 68.62073
Sn -2.97957  1.64244 71.57745
Sn -2.97953  0.81603 68.62073
Sn -5.96456  2.38007 71.57746
Sn -5.96486  3.20640 74.54588
Sn -2.98155  1.64997 77.49415
Sn -2.97986  0.81610 74.54588
Sn -5.96655  2.37252 77.49414
Sn -5.96488  3.19953 80.49934
Sn -2.98018  1.54850 83.44307
Sn -2.97988  0.82296 80.49933
Sn -5.96518  2.47400 83.44308
Sn  0.00541  3.20167 113.87549
Sn -2.97679  1.63561 116.80560
Sn -2.97959  0.82083 113.87549
Sn -5.96179  2.38689 116.80560
Sn -5.96323  3.20533 119.81712
Sn -2.97703  1.64753 122.76296
Sn -2.97823  0.81717 119.81711
Sn -5.96202  2.37498 122.76296
Sn -5.96515  3.20514 125.72940
Sn -2.98184  1.64221 128.68898
Sn -2.98015  0.81737 125.72939
Sn -5.96684  2.38029 128.68897
Sn -5.96662  3.20565 131.67781
Sn -2.98003  1.65209 134.64146
Sn -2.98162  0.81685 131.67781
Sn -5.96503  2.37041 134.64146
Sn -5.96517  3.20572 137.59926
Sn -2.98196  1.64512 140.56323
Sn -2.98017  0.81684 137.59929
Sn -5.96696  2.37738 140.56322
Sn -5.96494  3.20345 143.54279
Sn -2.97998  1.65184 146.50340
Sn -2.97994  0.81905 143.54279
Sn -5.96498  2.37066 146.50340
Sn -5.96513  3.20829 149.45931
Sn -2.98015  1.64236 152.42365
Sn -2.98013  0.81421 149.45931
Sn -5.96515  2.38014 152.42365
Sn -5.96499  3.20350 155.40478
Sn -2.97999  1.64950 158.36673
Sn -2.97999  0.81900 155.40478
Sn -5.96499  2.37300 158.36673
Sn -5.96499  3.20848 161.32216
Sn -2.97656  1.64579 164.29059
Sn -2.97999  0.81402 161.32216
Sn -5.96156  2.37671 164.29059
Sn -5.96453  3.20647 167.27573
Sn -2.97957  1.64244 170.23245
Sn -2.97953  0.81603 167.27573
Sn -5.96456  2.38007 170.23246
Sn -5.96486  3.20640 173.20088
Sn -2.98155  1.64997 176.14915
Sn -2.97986  0.81610 173.20088
Sn -5.96655  2.37252 176.14914
Sn -5.96488  3.19953 179.15434
Sn -2.98018  1.54850 182.09807
Sn -2.97988  0.82296 179.15433
Sn -5.96518  2.47400 182.09808
Sn  0.00541  6.41967 -83.43451
Sn -2.97679  4.85361 -80.50440
Sn -2.97959  4.03883 -83.43451
Sn -5.96179  5.60489 -80.50440
Sn -5.96323  6.42333 -77.49288
Sn -2.97703  4.86553 -74.54704
Sn -2.97823  4.03517 -77.49289
Sn -5.96202  5.59298 -74.54704
Sn -5.96515  6.42314 -71.58060
Sn -2.98184  4.86021 -68.62102
Sn -2.98015  4.03537 -71.58061
Sn -5.96684  5.59829 -68.62103
Sn -5.96662  6.42365 -65.63219
Sn -2.98003  4.87009 -62.66854
Sn -2.98162  4.03485 -65.63219
Sn -5.96503  5.58841 -62.66854
Sn -5.96517  6.42372 -59.71074
Sn -2.98196  4.86312 -56.74677
Sn -2.98017  4.03484 -59.71071
Sn -5.96696  5.59538 -56.74678
Sn -5.96494  6.42145 -53.76721
Sn -2.97998  4.86984 -50.80660
Sn -2.97994  4.03705 -53.76721
Sn -5.96498  5.58866 -50.80660
Sn -5.96513  6.42629 -47.85069
Sn -2.98015  4.86036 -44.88635
Sn -2.98013  4.03221 -47.85069
Sn -5.96515  5.59814 -44.88635
Sn -5.96499  6.42150 -41.90522
Sn -2.97999  4.86750 -38.94327
Sn -2.97999  4.03700 -41.90522
Sn -5.96499  5.59100 -38.94327
Sn -5.96499  6.42648 -35.98784
Sn -2.97656  4.86379 -33.01941
Sn -2.97999  4.03202 -35.98784
Sn -5.96156  5.59471 -33.01941
Sn -5.96453  6.42447 -30.03427
Sn -2.97957  4.86044 -27.07755
Sn -2.97953  4.03403 -30.03427
Sn -5.96456  5.59807 -27.07754
Sn -5.96486  6.42440 -24.10912
Sn -2.98155  4.86797 -21.16085
Sn -2.97986  4.03410 -24.10912
Sn -5.96655  5.59052 -21.16086
Sn -5.96488  6.41753 -18.15566
Sn -2.98018  4.76650 -15.21193
Sn -2.97988  4.04096 -18.15567
Sn -5.96518  5.69200 -15.21192
Sn  0.00541  6.41967 15.22049
Sn -2.97679  4.85361 18.15060
Sn -2.97959  4.03883 15.22049
Sn -5.96179  5.60489 18.15060
Sn -5.96323  6.42333 21.16212
Sn -2.97703  4.86553 24.10796
Sn -2.97823  4.03517 21.16211
Sn -5.96202  5.59298 24.10796
Sn -5.96515  6.42314 27.07440
Sn -2.98184  4.86021 30.03398
Sn -2.98015  4.03537 27.07439
Sn -5.96684  5.59829 30.03397
Sn -5.96662  6.42365 33.02281
Sn -2.98003  4.87009 35.98646
Sn -2.98162  4.03485 33.02281
Sn -5.96503  5.58841 35.98646
Sn -5.96517  6.42372 38.94426
Sn -2.98196  4.86312 41.90823
Sn -2.98017  4.03484 38.94429
Sn -5.96696  5.59538 41.90822
Sn -5.96494  6.42145 44.88779
Sn -2.97998  4.86984 47.84840
Sn -2.97994  4.03705 44.88779
Sn -5.96498  5.58866 47.84840
Sn -5.96513  6.42629 50.80431
Sn -2.98015  4.86036 53.76865
Sn -2.98013  4.03221 50.80431
Sn -5.96515  5.59814 53.76865
Sn -5.96499  6.42150 56.74978
Sn -2.97999  4.86750 59.71173
Sn -2.97999  4.03700 56.74978
Sn -5.96499  5.59100 59.71173
Sn -5.96499  6.42648 62.66716
Sn -2.97656  4.86379 65.63559
Sn -2.97999  4.03202 62.66716
Sn -5.96156  5.59471 65.63559
Sn -5.96453  6.42447 68.62073
Sn -2.97957  4.86044 71.57745
Sn -2.97953  4.03403 68.62073
Sn -5.96456  5.59807 71.57746
Sn -5.96486  6.42440 74.54588
Sn -2.98155  4.86797 77.49415
Sn -2.97986  4.03410 74.54588
Sn -5.96655  5.59052 77.49414
Sn -5.96488  6.41753 80.49934
Sn -2.98018  4.76650 83.44307
Sn -2.97988  4.04096 80.49933
Sn -5.96518  5.69200 83.44308
Sn  0.00541  6.41967 113.87549
Sn -2.97679  4.85361 116.80560
Sn -2.97959  4.03883 113.87549
Sn -5.96179  5.60489 116.80560
Sn -5.96323  6.42333 119.81712
Sn -2.97703  4.86553 122.76296
Sn -2.97823  4.03517 119.81711
Sn -5.96202  5.59298 122.76296
Sn -5.96515  6.42314 125.72940
Sn -2.98184  4.86021 128.68898
Sn -2.98015  4.03537 125.72939
Sn -5.96684  5.59829 128.68897
Sn -5.96662  6.42365 131.67781
Sn -2.98003  4.87009 134.64146
Sn -2.98162  4.03485 131.67781
Sn -5.96503  5.58841 134.64146
Sn -5.96517  6.42372 137.59926
Sn -2.98196  4.86312 140.56323
Sn -2.98017  4.03484 137.59929
Sn -5.96696  5.59538 140.56322
Sn -5.96494  6.42145 143.54279
Sn -2.97998  4.86984 146.50340
Sn -2.97994  4.03705 143.54279
Sn -5.96498  5.58866 146.50340
Sn -5.96513  6.42629 149.45931
Sn -2.98015  4.86036 152.42365
Sn -2.98013  4.03221 149.45931
Sn -5.96515  5.59814 152.42365
Sn -5.96499  6.42150 155.40478
Sn -2.97999  4.86750 158.36673
Sn -2.97999  4.03700 155.40478
Sn -5.96499  5.59100 158.36673
Sn -5.96499  6.42648 161.32216
Sn -2.97656  4.86379 164.29059
Sn -2.97999  4.03202 161.32216
Sn -5.96156  5.59471 164.29059
Sn -5.96453  6.42447 167.27573
Sn -2.97957  4.86044 170.23245
Sn -2.97953  4.03403 167.27573
Sn -5.96456  5.59807 170.23246
Sn -5.96486  6.42440 173.20088
Sn -2.98155  4.86797 176.14915
Sn -2.97986  4.03410 173.20088
Sn -5.96655  5.59052 176.14914
Sn -5.96488  6.41753 179.15434
Sn -2.98018  4.76650 182.09807
Sn -2.97988  4.04096 179.15433
Sn -5.96518  5.69200 182.09808
Sn  5.97541 -0.01633 -83.43451
Sn  2.99321 -1.58239 -80.50440
Sn  2.99041 -2.39717 -83.43451
Sn  0.00821 -0.83111 -80.50440
Sn  0.00677 -0.01267 -77.49288
Sn  2.99297 -1.57047 -74.54704
Sn  2.99177 -2.40083 -77.49289
Sn  0.00798 -0.84302 -74.54704
Sn  0.00485 -0.01286 -71.58060
Sn  2.98816 -1.57579 -68.62102
Sn  2.98985 -2.40063 -71.58061
Sn  0.00316 -0.83771 -68.62103
Sn  0.00338 -0.01235 -65.63219
Sn  2.98997 -1.56591 -62.66854
Sn  2.98838 -2.40115 -65.63219
Sn  0.00497 -0.84759 -62.66854
Sn  0.00483 -0.01228 -59.71074
Sn  2.98804 -1.57288 -56.74677
Sn  2.98983 -2.40116 -59.71071
Sn  0.00304 -0.84062 -56.74678
Sn  0.00506 -0.01455 -53.76721
Sn  2.99002 -1.56616 -50.80660
Sn  2.99006 -2.39895 -53.76721
Sn  0.00502 -0.84734 -50.80660
Sn  0.00487 -0.00971 -47.85069
Sn  2.98985 -1.57564 -44.88635
Sn  2.98987 -2.40379 -47.85069
Sn  0.00485 -0.83786 -44.88635
Sn  0.00501 -0.01450 -41.90522
Sn  2.99001 -1.56850 -38.94327
Sn  2.99001 -2.39900 -41.90522
Sn  0.00501 -0.84500 -38.94327
Sn  0.00501 -0.00952 -35.98784
Sn  2.99344 -1.57221 -33.01941
Sn  2.99001 -2.40398 -35.98784
Sn  0.00844 -0.84129 -33.01941
Sn  0.00547 -0.01153 -30.03427
Sn  2.99043 -1.57556 -27.07755
Sn  2.99047 -2.40197 -30.03427
Sn  0.00544 -0.83793 -27.07754
Sn  0.00514 -0.01160 -24.10912
Sn  2.98845 -1.56803 -21.16085
Sn  2.99014 -2.40190 -24.10912
Sn  0.00345 -0.84548 -21.16086
Sn  0.00512 -0.01847 -18.15566
Sn  2.98982 -1.66950 -15.21193
Sn  2.99012 -2.39504 -18.15567
Sn  0.00482 -0.74400 -15.21192
Sn  5.97541 -0.01633 15.22049
Sn  2.99321 -1.58239 18.15060
Sn  2.99041 -2.39717 15.22049
Sn  0.00821 -0.83111 18.15060
Sn  0.00677 -0.01267 21.16212
Sn  2.99297 -1.57047 24.10796
Sn  2.99177 -2.40083 21.16211
Sn  0.00798 -0.84302 24.10796
Sn  0.00485 -0.01286 27.07440
Sn  2.98816 -1.57579 30.03398
Sn  2.98985 -2.40063 27.07439
Sn  0.00316 -0.83771 30.03397
Sn  0.00338 -0.01235 33.02281
Sn  2.98997 -1.56591 35.98646
Sn  2.98838 -2.40115 33.02281
Sn  0.00497 -0.84759 35.98646
Sn  0.00483 -0.01228 38.94426
Sn  2.98804 -1.57288 41.90823
Sn  2.98983 -2.40116 38.94429
Sn  0.00304 -0.84062 41.90822
Sn  0.00506 -0.01455 44.88779
Sn  2.99002 -1.56616 47.84840
Sn  2.99006 -2.39895 44.88779
Sn  0.00502 -0.84734 47.84840
Sn  0.00487 -0.00971 50.80431
Sn  2.98985 -1.57564 53.76865
Sn  2.98987 -2.40379 50.80431
Sn  0.00485 -0.83786 53.76865
Sn  0.00501 -0.01450 56.74978
Sn  2.99001 -1.56850 59.71173
Sn  2.99001 -2.39900 56.74978
Sn  0.00501 -0.84500 59.71173
Sn  0.00501 -0.00952 62.66716
Sn  2.99344 -1.57221 65.63559
Sn  2.99001 -2.40398 62.66716
Sn  0.00844 -0.84129 65.63559
Sn  0.00547 -0.01153 68.62073
Sn  2.99043 -1.57556 71.57745
Sn  2.99047 -2.40197 68.62073
Sn  0.00544 -0.83793 71.57746
Sn  0.00514 -0.01160 74.54588
Sn  2.98845 -1.56803 77.49415
Sn  2.99014 -2.40190 74.54588
Sn  0.00345 -0.84548 77.49414
Sn  0.00512 -0.01847 80.49934
Sn  2.98982 -1.66950 83.44307
Sn  2.99012 -2.39504 80.49933
Sn  0.00482 -0.74400 83.44308
Sn  5.97541 -0.01633 113.87549
Sn  2.99321 -1.58239 116.80560
Sn  2.99041 -2.39717 113.87549
Sn  0.00821 -0.83111 116.80560
Sn  0.00677 -0.01267 119.81712
Sn  2.99297 -1.57047 122.76296
Sn  2.99177 -2.40083 119.81711
Sn  0.00798 -0.84302 122.76296
Sn  0.00485 -0.01286 125.72940
Sn  2.98816 -1.57579 128.68898
Sn  2.98985 -2.40063 125.72939
Sn  0.00316 -0.83771 128.68897
Sn  0.00338 -0.01235 131.67781
Sn  2.98997 -1.56591 134.64146
Sn  2.98838 -2.40115 131.67781
Sn  0.00497 -0.84759 134.64146
Sn  0.00483 -0.01228 137.59926
Sn  2.98804 -1.57288 140.56323
Sn  2.98983 -2.40116 137.59929
Sn  0.00304 -0.84062 140.56322
Sn  0.00506 -0.01455 143.54279
Sn  2.99002 -1.56616 146.50340
Sn  2.99006 -2.39895 143.54279
Sn  0.00502 -0.84734 146.50340
Sn  0.00487 -0.00971 149.45931
Sn  2.98985 -1.57564 152.42365
Sn  2.98987 -2.40379 149.45931
Sn  0.00485 -0.83786 152.42365
Sn  0.00501 -0.01450 155.40478
Sn  2.99001 -1.56850 158.36673
Sn  2.99001 -2.39900 155.40478
Sn  0.00501 -0.84500 158.36673
Sn  0.00501 -0.00952 161.32216
Sn  2.99344 -1.57221 164.29059
Sn  2.99001 -2.40398 161.32216
Sn  0.00844 -0.84129 164.29059
Sn  0.00547 -0.01153 167.27573
Sn  2.99043 -1.57556 170.23245
Sn  2.99047 -2.40197 167.27573
Sn  0.00544 -0.83793 170.23246
Sn  0.00514 -0.01160 173.20088
Sn  2.98845 -1.56803 176.14915
Sn  2.99014 -2.40190 173.20088
Sn  0.00345 -0.84548 176.14914
Sn  0.00512 -0.01847 179.15434
Sn  2.98982 -1.66950 182.09807
Sn  2.99012 -2.39504 179.15433
Sn  0.00482 -0.74400 182.09808
Sn  5.97541  3.20167 -83.43451
Sn  2.99321  1.63561 -80.50440
Sn  2.99041  0.82083 -83.43451
Sn  0.00821  2.38689 -80.50440
Sn  0.00677  3.20533 -77.49288
Sn  2.99297  1.64753 -74.54704
Sn  2.99177  0.81717 -77.49289
Sn  0.00798  2.37498 -74.54704
Sn  0.00485  3.20514 -71.58060
Sn  2.98816  1.64221 -68.62102
Sn  2.98985  0.81737 -71.58061
Sn  0.00316  2.38029 -68.62103
Sn  0.00338  3.20565 -65.63219
Sn  2.98997  1.65209 -62.66854
Sn  2.98838  0.81685 -65.63219
Sn  0.00497  2.37041 -62.66854
Sn  0.00483  3.20572 -59.71074
Sn  2.98804  1.64512 -56.74677
Sn  2.98983  0.81684 -59.71071
Sn  0.00304  2.37738 -56.74678
Sn  0.00506  3.20345 -53.76721
Sn  2.99002  1.65184 -50.80660
Sn  2.99006  0.81905 -53.76721
Sn  0.00502  2.37066 -50.80660
Sn  0.00487  3.20829 -47.85069
Sn  2.98985  1.64236 -44.88635
Sn  2.98987  0.81421 -47.85069
Sn  0.00485  2.38014 -44.88635
Sn  0.00501  3.20350 -41.90522
Sn  2.99001  1.64950 -38.94327
Sn  2.99001  0.81900 -41.90522
Sn  0.00501  2.37300 -38.94327
Sn  0.00501  3.20848 -35.98784
Sn  2.99344  1.64579 -33.01941
Sn  2.99001  0.81402 -35.98784
Sn  0.00844  2.37671 -33.01941
Sn  0.00547  3.20647 -30.03427
Sn  2.99043  1.64244 -27.07755
Sn  2.99047  0.81603 -30.03427
Sn  0.00544  2.38007 -27.07754
Sn  0.00514  3.20640 -24.10912
Sn  2.98845  1.64997 -21.16085
Sn  2.99014  0.81610 -24.10912
Sn  0.00345  2.37252 -21.16086
Sn  0.00512  3.19953 -18.15566
Sn  2.98982  1.54850 -15.21193
Sn  2.99012  0.82296 -18.15567
Sn  0.00482  2.47400 -15.21192
Sn  5.97541  3.20167 15.22049
Sn  2.99321  1.63561 18.15060
Sn  2.99041  0.82083 15.22049
Sn  0.00821  2.38689 18.15060
Sn  0.00677  3.20533 21.16212
Sn  2.99297  1.64753 24.10796
Sn  2.99177  0.81717 21.16211
Sn  0.00798  2.37498 24.10796
Sn  0.00485  3.20514 27.07440
Sn  2.98816  1.64221 30.03398
Sn  2.98985  0.81737 27.07439
Sn  0.00316  2.38029 30.03397
Sn  0.00338  3.20565 33.02281
Sn  2.98997  1.65209 35.98646
Sn  2.98838  0.81685 33.02281
Sn  0.00497  2.37041 35.98646
Sn  0.00483  3.20572 38.94426
Sn  2.98804  1.64512 41.90823
Sn  2.98983  0.81684 38.94429
Sn  0.00304  2.37738 41.90822
Sn  0.00506  3.20345 44.88779
Sn  2.99002  1.65184 47.84840
Sn  2.99006  0.81905 44.88779
Sn  0.00502  2.37066 47.84840
Sn  0.00487  3.20829 50.80431
Sn  2.98985  1.64236 53.76865
Sn  2.98987  0.81421 50.80431
Sn  0.00485  2.38014 53.76865
Sn  0.00501  3.20350 56.74978
Sn  2.99001  1.64950 59.71173
Sn  2.99001  0.81900 56.74978
Sn  0.00501  2.37300 59.71173
Sn  0.00501  3.20848 62.66716
Sn  2.99344  1.64579 65.63559
Sn  2.99001  0.81402 62.66716
Sn  0.00844  2.37671 65.63559
Sn  0.00547  3.20647 68.62073
Sn  2.99043  1.64244 71.57745
Sn  2.99047  0.81603 68.62073
Sn  0.00544  2.38007 71.57746
Sn  0.00514  3.20640 74.54588
Sn  2.98845  1.64997 77.49415
Sn  2.99014  0.81610 74.54588
Sn  0.00345  2.37252 77.49414
Sn  0.00512  3.19953 80.49934
Sn  2.98982  1.54850 83.44307
Sn  2.99012  0.82296 80.49933
Sn  0.00482  2.47400 83.44308
Sn  5.97541  3.20167 113.87549
Sn  2.99321  1.63561 116.80560
Sn  2.99041  0.82083 113.87549
Sn  0.00821  2.38689 116.80560
Sn  0.00677  3.20533 119.81712
Sn  2.99297  1.64753 122.76296
Sn  2.99177  0.81717 119.81711
Sn  0.00798  2.37498 122.76296
Sn  0.00485  3.20514 125.72940
Sn  2.98816  1.64221 128.68898
Sn  2.98985  0.81737 125.72939
Sn  0.00316  2.38029 128.68897
Sn  0.00338  3.20565 131.67781
Sn  2.98997  1.65209 134.64146
Sn  2.98838  0.81685 131.67781
Sn  0.00497  2.37041 134.64146
Sn  0.00483  3.20572 137.59926
Sn  2.98804  1.64512 140.56323
Sn  2.98983  0.81684 137.59929
Sn  0.00304  2.37738 140.56322
Sn  0.00506  3.20345 143.54279
Sn  2.99002  1.65184 146.50340
Sn  2.99006  0.81905 143.54279
Sn  0.00502  2.37066 146.50340
Sn  0.00487  3.20829 149.45931
Sn  2.98985  1.64236 152.42365
Sn  2.98987  0.81421 149.45931
Sn  0.00485  2.38014 152.42365
Sn  0.00501  3.20350 155.40478
Sn  2.99001  1.64950 158.36673
Sn  2.99001  0.81900 155.40478
Sn  0.00501  2.37300 158.36673
Sn  0.00501  3.20848 161.32216
Sn  2.99344  1.64579 164.29059
Sn  2.99001  0.81402 161.32216
Sn  0.00844  2.37671 164.29059
Sn  0.00547  3.20647 167.27573
Sn  2.99043  1.64244 170.23245
Sn  2.99047  0.81603 167.27573
Sn  0.00544  2.38007 170.23246
Sn  0.00514  3.20640 173.20088
Sn  2.98845  1.64997 176.14915
Sn  2.99014  0.81610 173.20088
Sn  0.00345  2.37252 176.14914
Sn  0.00512  3.19953 179.15434
Sn  2.98982  1.54850 182.09807
Sn  2.99012  0.82296 179.15433
Sn  0.00482  2.47400 182.09808
Sn  5.97541  6.41967 -83.43451
Sn  2.99321  4.85361 -80.50440
Sn  2.99041  4.03883 -83.43451
Sn  0.00821  5.60489 -80.50440
Sn  0.00677  6.42333 -77.49288
Sn  2.99297  4.86553 -74.54704
Sn  2.99177  4.03517 -77.49289
Sn  0.00798  5.59298 -74.54704
Sn  0.00485  6.42314 -71.58060
Sn  2.98816  4.86021 -68.62102
Sn  2.98985  4.03537 -71.58061
Sn  0.00316  5.59829 -68.62103
Sn  0.00338  6.42365 -65.63219
Sn  2.98997  4.87009 -62.66854
Sn  2.98838  4.03485 -65.63219
Sn  0.00497  5.58841 -62.66854
Sn  0.00483  6.42372 -59.71074
Sn  2.98804  4.86312 -56.74677
Sn  2.98983  4.03484 -59.71071
Sn  0.00304  5.59538 -56.74678
Sn  0.00506  6.42145 -53.76721
Sn  2.99002  4.86984 -50.80660
Sn  2.99006  4.03705 -53.76721
Sn  0.00502  5.58866 -50.80660
Sn  0.00487  6.42629 -47.85069
Sn  2.98985  4.86036 -44.88635
Sn  2.98987  4.03221 -47.85069
Sn  0.00485  5.59814 -44.88635
Sn  0.00501  6.42150 -41.90522
Sn  2.99001  4.86750 -38.94327
Sn  2.99001  4.03700 -41.90522
Sn  0.00501  5.59100 -38.94327
Sn  0.00501  6.42648 -35.98784
Sn  2.99344  4.86379 -33.01941
Sn  2.99001  4.03202 -35.98784
Sn  0.00844  5.59471 -33.01941
Sn  0.00547  6.42447 -30.03427
Sn  2.99043  4.86044 -27.07755
Sn  2.99047  4.03403 -30.03427
Sn  0.00544  5.59807 -27.07754
Sn  0.00514  6.42440 -24.10912
Sn  2.98845  4.86797 -21.16085
Sn  2.99014  4.03410 -24.10912
Sn  0.00345  5.59052 -21.16086
Sn  0.00512  6.41753 -18.15566
Sn  2.98982  4.76650 -15.21193
Sn  2.99012  4.04096 -18.15567
Sn  0.00482  5.69200 -15.21192
Sn  5.97541  6.41967 15.22049
Sn  2.99321  4.85361 18.15060
Sn  2.99041  4.03883 15.22049
Sn  0.00821  5.60489 18.15060
Sn  0.00677  6.42333 21.16212
Sn  2.99297  4.86553 24.10796
Sn  2.99177  4.03517 21.16211
Sn  0.00798  5.59298 24.10796
Sn  0.00485  6.42314 27.07440
Sn  2.98816  4.86021 30.03398
Sn  2.98985  4.03537 27.07439
Sn  0.00316  5.59829 30.03397
Sn  0.00338  6.42365 33.02281
Sn  2.98997  4.87009 35.98646
Sn  2.98838  4.03485 33.02281
Sn  0.00497  5.58841 35.98646
Sn  0.00483  6.42372 38.94426
Sn  2.98804  4.86312 41.90823
Sn  2.98983  4.03484 38.94429
Sn  0.00304  5.59538 41.90822
Sn  0.00506  6.42145 44.88779
Sn  2.99002  4.86984 47.84840
Sn  2.99006  4.03705 44.88779
Sn  0.00502  5.58866 47.84840
Sn  0.00487  6.42629 50.80431
Sn  2.98985  4.86036 53.76865
Sn  2.98987  4.03221 50.80431
Sn  0.00485  5.59814 53.76865
Sn  0.00501  6.42150 56.74978
Sn  2.99001  4.86750 59.71173
Sn  2.99001  4.03700 56.74978
Sn  0.00501  5.59100 59.71173
Sn  0.00501  6.42648 62.66716
Sn  2.99344  4.86379 65.63559
Sn  2.99001  4.03202 62.66716
Sn  0.00844  5.59471 65.63559
Sn  0.00547  6.42447 68.62073
Sn  2.99043  4.86044 71.57745
Sn  2.99047  4.03403 68.62073
Sn  0.00544  5.59807 71.57746
Sn  0.00514  6.42440 74.54588
Sn  2.98845  4.86797 77.49415
Sn  2.99014  4.03410 74.54588
Sn  0.00345  5.59052 77.49414
Sn  0.00512  6.41753 80.49934
Sn  2.98982  4.76650 83.44307
Sn  2.99012  4.04096 80.49933
Sn  0.00482  5.69200 83.44308
Sn  5.97541  6.41967 113.87549
Sn  2.99321  4.85361 116.80560
Sn  2.99041  4.03883 113.87549
Sn  0.00821  5.60489 116.80560
Sn  0.00677  6.42333 119.81712
Sn  2.99297  4.86553 122.76296
Sn  2.99177  4.03517 119.81711
Sn  0.00798  5.59298 122.76296
Sn  0.00485  6.42314 125.72940
Sn  2.98816  4.86021 128.68898
Sn  2.98985  4.03537 125.72939
Sn  0.00316  5.59829 128.68897
Sn  0.00338  6.42365 131.67781
Sn  2.98997  4.87009 134.64146
Sn  2.98838  4.03485 131.67781
Sn  0.00497  5.58841 134.64146
Sn  0.00483  6.42372 137.59926
Sn  2.98804  4.86312 140.56323
Sn  2.98983  4.03484 137.59929
Sn  0.00304  5.59538 140.56322
Sn  0.00506  6.42145 143.54279
Sn  2.99002  4.86984 146.50340
Sn  2.99006  4.03705 143.54279
Sn  0.00502  5.58866 146.50340
Sn  0.00487  6.42629 149.45931
Sn  2.98985  4.86036 152.42365
Sn  2.98987  4.03221 149.45931
Sn  0.00485  5.59814 152.42365
Sn  0.00501  6.42150 155.40478
Sn  2.99001  4.86750 158.36673
Sn  2.99001  4.03700 155.40478
Sn  0.00501  5.59100 158.36673
Sn  0.00501  6.42648 161.32216
Sn  2.99344  4.86379 164.29059
Sn  2.99001  4.03202 161.32216
Sn  0.00844  5.59471 164.29059
Sn  0.00547  6.42447 167.27573
Sn  2.99043  4.86044 170.23245
Sn  2.99047  4.03403 167.27573
Sn  0.00544  5.59807 170.23246
Sn  0.00514  6.42440 173.20088
Sn  2.98845  4.86797 176.14915
Sn  2.99014  4.03410 173.20088
Sn  0.00345  5.59052 176.14914
Sn  0.00512  6.41753 179.15434
Sn  2.98982  4.76650 182.09807
Sn  2.99012  4.04096 179.15433
Sn  0.00482  5.69200 182.09808
Sn 11.94541 -0.01633 -83.43451
Sn  8.96321 -1.58239 -80.50440
Sn  8.96041 -2.39717 -83.43451
Sn  5.97821 -0.83111 -80.50440
Sn  5.97677 -0.01267 -77.49288
Sn  8.96297 -1.57047 -74.54704
Sn  8.96177 -2.40083 -77.49289
Sn  5.97798 -0.84302 -74.54704
Sn  5.97485 -0.01286 -71.58060
Sn  8.95816 -1.57579 -68.62102
Sn  8.95985 -2.40063 -71.58061
Sn  5.97316 -0.83771 -68.62103
Sn  5.97338 -0.01235 -65.63219
Sn  8.95997 -1.56591 -62.66854
Sn  8.95838 -2.40115 -65.63219
Sn  5.97497 -0.84759 -62.66854
Sn  5.97483 -0.01228 -59.71074
Sn  8.95804 -1.57288 -56.74677
Sn  8.95983 -2.40116 -59.71071
Sn  5.97304 -0.84062 -56.74678
Sn  5.97506 -0.01455 -53.76721
Sn  8.96002 -1.56616 -50.80660
Sn  8.96006 -2.39895 -53.76721
Sn  5.97502 -0.84734 -50.80660
Sn  5.97487 -0.00971 -47.85069
Sn  8.95985 -1.57564 -44.88635
Sn  8.95987 -2.40379 -47.85069
Sn  5.97485 -0.83786 -44.88635
Sn  5.97501 -0.01450 -41.90522
Sn  8.96001 -1.56850 -38.94327
Sn  8.96001 -2.39900 -41.90522
Sn  5.97501 -0.84500 -38.94327
Sn  5.97501 -0.00952 -35.98784
Sn  8.96344 -1.57221 -33.01941
Sn  8.96001 -2.40398 -35.98784
Sn  5.97844 -0.84129 -33.01941
Sn  5.97547 -0.01153 -30.03427
Sn  8.96043 -1.57556 -27.07755
Sn  8.96047 -2.40197 -30.03427
Sn  5.97544 -0.83793 -27.07754
Sn  5.97514 -0.01160 -24.10912
Sn  8.95845 -1.56803 -21.16085
Sn  8.96014 -2.40190 -24.10912
Sn  5.97345 -0.84548 -21.16086
Sn  5.97512 -0.01847 -18.15566
Sn  8.95982 -1.66950 -15.21193
Sn  8.96012 -2.39504 -18.15567
Sn  5.97482 -0.74400 -15.21192
Sn 11.94541 -0.01633 15.22049
Sn  8.96321 -1.58239 18.15060
Sn  8.96041 -2.39717 15.22049
Sn  5.97821 -0.83111 18.15060
Sn  5.97677 -0.01267 21.16212
Sn  8.96297 -1.57047 24.10796
Sn  8.96177 -2.40083 21.16211
Sn  5.97798 -0.84302 24.10796
Sn  5.97485 -0.01286 27.07440
Sn  8.95816 -1.57579 30.03398
Sn  8.95985 -2.40063 27.07439
Sn  5.97316 -0.83771 30.03397
Sn  5.97338 -0.01235 33.02281
Sn  8.95997 -1.56591 35.98646
Sn  8.95838 -2.40115 33.02281
Sn  5.97497 -0.84759 35.98646
Sn  5.97483 -0.01228 38.94426
Sn  8.95804 -1.57288 41.90823
Sn  8.95983 -2.40116 38.94429
Sn  5.97304 -0.84062 41.90822
Sn  5.97506 -0.01455 44.88779
Sn  8.96002 -1.56616 47.84840
Sn  8.96006 -2.39895 44.88779
Sn  5.97502 -0.84734 47.84840
Sn  5.97487 -0.00971 50.80431
Sn  8.95985 -1.57564 53.76865
Sn  8.95987 -2.40379 50.80431
Sn  5.97485 -0.83786 53.76865
Sn  5.97501 -0.01450 56.74978
Sn  8.96001 -1.56850 59.71173
Sn  8.96001 -2.39900 56.74978
Sn  5.97501 -0.84500 59.71173
Sn  5.97501 -0.00952 62.66716
Sn  8.96344 -1.57221 65.63559
Sn  8.96001 -2.40398 62.66716
Sn  5.97844 -0.84129 65.63559
Sn  5.97547 -0.01153 68.62073
Sn  8.96043 -1.57556 71.57745
Sn  8.96047 -2.40197 68.62073
Sn  5.97544 -0.83793 71.57746
Sn  5.97514 -0.01160 74.54588
Sn  8.95845 -1.56803 77.49415
Sn  8.96014 -2.40190 74.54588
Sn  5.97345 -0.84548 77.49414
Sn  5.97512 -0.01847 80.49934
Sn  8.95982 -1.66950 83.44307
Sn  8.96012 -2.39504 80.49933
Sn  5.97482 -0.74400 83.44308
Sn 11.94541 -0.01633 113.87549
Sn  8.96321 -1.58239 116.80560
Sn  8.96041 -2.39717 113.87549
Sn  5.97821 -0.83111 116.80560
Sn  5.97677 -0.01267 119.81712
Sn  8.96297 -1.57047 122.76296
Sn  8.96177 -2.40083 119.81711
Sn  5.97798 -0.84302 122.76296
Sn  5.97485 -0.01286 125.72940
Sn  8.95816 -1.57579 128.68898
Sn  8.95985 -2.40063 125.72939
Sn  5.97316 -0.83771 128.68897
Sn  5.97338 -0.01235 131.67781
Sn  8.95997 -1.56591 134.64146
Sn  8.95838 -2.40115 131.67781
Sn  5.97497 -0.84759 134.64146
Sn  5.97483 -0.01228 137.59926
Sn  8.95804 -1.57288 140.56323
Sn  8.95983 -2.40116 137.59929
Sn  5.97304 -0.84062 140.56322
Sn  5.97506 -0.01455 143.54279
Sn  8.96002 -1.56616 146.50340
Sn  8.96006 -2.39895 143.54279
Sn  5.97502 -0.84734 146.50340
Sn  5.97487 -0.00971 149.45931
Sn  8.95985 -1.57564 152.42365
Sn  8.95987 -2.40379 149.45931
Sn  5.97485 -0.83786 152.42365
Sn  5.97501 -0.01450 155.40478
Sn  8.96001 -1.56850 158.36673
Sn  8.96001 -2.39900 155.40478
Sn  5.97501 -0.84500 158.36673
Sn  5.97501 -0.00952 161.32216
Sn  8.96344 -1.57221 164.29059
Sn  8.96001 -2.40398 161.32216
Sn  5.97844 -0.84129 164.29059
Sn  5.97547 -0.01153 167.27573
Sn  8.96043 -1.57556 170.23245
Sn  8.96047 -2.40197 167.27573
Sn  5.97544 -0.83793 170.23246
Sn  5.97514 -0.01160 173.20088
Sn  8.95845 -1.56803 176.14915
Sn  8.96014 -2.40190 173.20088
Sn  5.97345 -0.84548 176.14914
Sn  5.97512 -0.01847 179.15434
Sn  8.95982 -1.66950 182.09807
Sn  8.96012 -2.39504 179.15433
Sn  5.97482 -0.74400 182.09808
Sn 11.94541  3.20167 -83.43451
Sn  8.96321  1.63561 -80.50440
Sn  8.96041  0.82083 -83.43451
Sn  5.97821  2.38689 -80.50440
Sn  5.97677  3.20533 -77.49288
Sn  8.96297  1.64753 -74.54704
Sn  8.96177  0.81717 -77.49289
Sn  5.97798  2.37498 -74.54704
Sn  5.97485  3.20514 -71.58060
Sn  8.95816  1.64221 -68.62102
Sn  8.95985  0.81737 -71.58061
Sn  5.97316  2.38029 -68.62103
Sn  5.97338  3.20565 -65.63219
Sn  8.95997  1.65209 -62.66854
Sn  8.95838  0.81685 -65.63219
Sn  5.97497  2.37041 -62.66854
Sn  5.97483  3.20572 -59.71074
Sn  8.95804  1.64512 -56.74677
Sn  8.95983  0.81684 -59.71071
Sn  5.97304  2.37738 -56.74678
Sn  5.97506  3.20345 -53.76721
Sn  8.96002  1.65184 -50.80660
Sn  8.96006  0.81905 -53.76721
Sn  5.97502  2.37066 -50.80660
Sn  5.97487  3.20829 -47.85069
Sn  8.95985  1.64236 -44.88635
Sn  8.95987  0.81421 -47.85069
Sn  5.97485  2.38014 -44.88635
Sn  5.97501  3.20350 -41.90522
Sn  8.96001  1.64950 -38.94327
Sn  8.96001  0.81900 -41.90522
Sn  5.97501  2.37300 -38.94327
Sn  5.97501  3.20848 -35.98784
Sn  8.96344  1.64579 -33.01941
Sn  8.96001  0.81402 -35.98784
Sn  5.97844  2.37671 -33.01941
Sn  5.97547  3.20647 -30.03427
Sn  8.96043  1.64244 -27.07755
Sn  8.96047  0.81603 -30.03427
Sn  5.97544  2.38007 -27.07754
Sn  5.97514  3.20640 -24.10912
Sn  8.95845  1.64997 -21.16085
Sn  8.96014  0.81610 -24.10912
Sn  5.97345  2.37252 -21.16086
Sn  5.97512  3.19953 -18.15566
Sn  8.95982  1.54850 -15.21193
Sn  8.96012  0.82296 -18.15567
Sn  5.97482  2.47400 -15.21192
Sn 11.94541  3.20167 15.22049
Sn  8.96321  1.63561 18.15060
Sn  8.96041  0.82083 15.22049
Sn  5.97821  2.38689 18.15060
Sn  5.97677  3.20533 21.16212
Sn  8.96297  1.64753 24.10796
Sn  8.96177  0.81717 21.16211
Sn  5.97798  2.37498 24.10796
Sn  5.97485  3.20514 27.07440
Sn  8.95816  1.64221 30.03398
Sn  8.95985  0.81737 27.07439
Sn  5.97316  2.38029 30.03397
Sn  5.97338  3.20565 33.02281
Sn  8.95997  1.65209 35.98646
Sn  8.95838  0.81685 33.02281
Sn  5.97497  2.37041 35.98646
Sn  5.97483  3.20572 38.94426
Sn  8.95804  1.64512 41.90823
Sn  8.95983  0.81684 38.94429
Sn  5.97304  2.37738 41.90822
Sn  5.97506  3.20345 44.88779
Sn  8.96002  1.65184 47.84840
Sn  8.96006  0.81905 44.88779
Sn  5.97502  2.37066 47.84840
Sn  5.97487  3.20829 50.80431
Sn  8.95985  1.64236 53.76865
Sn  8.95987  0.81421 50.80431
Sn  5.97485  2.38014 53.76865
Sn  5.97501  3.20350 56.74978
Sn  8.96001  1.64950 59.71173
Sn  8.96001  0.81900 56.74978
Sn  5.97501  2.37300 59.71173
Sn  5.97501  3.20848 62.66716
Sn  8.96344  1.64579 65.63559
Sn  8.96001  0.81402 62.66716
Sn  5.97844  2.37671 65.63559
Sn  5.97547  3.20647 68.62073
Sn  8.96043  1.64244 71.57745
Sn  8.96047  0.81603 68.62073
Sn  5.97544  2.38007 71.57746
Sn  5.97514  3.20640 74.54588
Sn  8.95845  1.64997 77.49415
Sn  8.96014  0.81610 74.54588
Sn  5.97345  2.37252 77.49414
Sn  5.97512  3.19953 80.49934
Sn  8.95982  1.54850 83.44307
Sn  8.96012  0.82296 80.49933
Sn  5.97482  2.47400 83.44308
Sn 11.94541  3.20167 113.87549
Sn  8.96321  1.63561 116.80560
Sn  8.96041  0.82083 113.87549
Sn  5.97821  2.38689 116.80560
Sn  5.97677  3.20533 119.81712
Sn  8.96297  1.64753 122.76296
Sn  8.96177  0.81717 119.81711
Sn  5.97798  2.37498 122.76296
Sn  5.97485  3.20514 125.72940
Sn  8.95816  1.64221 128.68898
Sn  8.95985  0.81737 125.72939
Sn  5.97316  2.38029 128.68897
Sn  5.97338  3.20565 131.67781
Sn  8.95997  1.65209 134.64146
Sn  8.95838  0.81685 131.67781
Sn  5.97497  2.37041 134.64146
Sn  5.97483  3.20572 137.59926
Sn  8.95804  1.64512 140.56323
Sn  8.95983  0.81684 137.59929
Sn  5.97304  2.37738 140.56322
Sn  5.97506  3.20345 143.54279
Sn  8.96002  1.65184 146.50340
Sn  8.96006  0.81905 143.54279
Sn  5.97502  2.37066 146.50340
Sn  5.97487  3.20829 149.45931
Sn  8.95985  1.64236 152.42365
Sn  8.95987  0.81421 149.45931
Sn  5.97485  2.38014 152.42365
Sn  5.97501  3.20350 155.40478
Sn  8.96001  1.64950 158.36673
Sn  8.96001  0.81900 155.40478
Sn  5.97501  2.37300 158.36673
Sn  5.97501  3.20848 161.32216
Sn  8.96344  1.64579 164.29059
Sn  8.96001  0.81402 161.32216
Sn  5.97844  2.37671 164.29059
Sn  5.97547  3.20647 167.27573
Sn  8.96043  1.64244 170.23245
Sn  8.96047  0.81603 167.27573
Sn  5.97544  2.38007 170.23246
Sn  5.97514  3.20640 173.20088
Sn  8.95845  1.64997 176.14915
Sn  8.96014  0.81610 173.20088
Sn  5.97345  2.37252 176.14914
Sn  5.97512  3.19953 179.15434
Sn  8.95982  1.54850 182.09807
Sn  8.96012  0.82296 179.15433
Sn  5.97482  2.47400 182.09808
Sn 11.94541  6.41967 -83.43451
Sn  8.96321  4.85361 -80.50440
Sn  8.96041  4.03883 -83.43451
Sn  5.97821  5.60489 -80.50440
Sn  5.97677  6.42333 -77.49288
Sn  8.96297  4.86553 -74.54704
Sn  8.96177  4.03517 -77.49289
Sn  5.97798  5.59298 -74.54704
Sn  5.97485  6.42314 -71.58060
Sn  8.95816  4.86021 -68.62102
Sn  8.95985  4.03537 -71.58061
Sn  5.97316  5.59829 -68.62103
Sn  5.97338  6.42365 -65.63219
Sn  8.95997  4.87009 -62.66854
Sn  8.95838  4.03485 -65.63219
Sn  5.97497  5.58841 -62.66854
Sn  5.97483  6.42372 -59.71074
Sn  8.95804  4.86312 -56.74677
Sn  8.95983  4.03484 -59.71071
Sn  5.97304  5.59538 -56.74678
Sn  5.97506  6.42145 -53.76721
Sn  8.96002  4.86984 -50.80660
Sn  8.96006  4.03705 -53.76721
Sn  5.97502  5.58866 -50.80660
Sn  5.97487  6.42629 -47.85069
Sn  8.95985  4.86036 -44.88635
Sn  8.95987  4.03221 -47.85069
Sn  5.97485  5.59814 -44.88635
Sn  5.97501  6.42150 -41.90522
Sn  8.96001  4.86750 -38.94327
Sn  8.96001  4.03700 -41.90522
Sn  5.97501  5.59100 -38.94327
Sn  5.97501  6.42648 -35.98784
Sn  8.96344  4.86379 -33.01941
Sn  8.96001  4.03202 -35.98784
Sn  5.97844  5.59471 -33.01941
Sn  5.97547  6.42447 -30.03427
Sn  8.96043  4.86044 -27.07755
Sn  8.96047  4.03403 -30.03427
Sn  5.97544  5.59807 -27.07754
Sn  5.97514  6.42440 -24.10912
Sn  8.95845  4.86797 -21.16085
Sn  8.96014  4.03410 -24.10912
Sn  5.97345  5.59052 -21.16086
Sn  5.97512  6.41753 -18.15566
Sn  8.95982  4.76650 -15.21193
Sn  8.96012  4.04096 -18.15567
Sn  5.97482  5.69200 -15.21192
Sn 11.94541  6.41967 15.22049
Sn  8.96321  4.85361 18.15060
Sn  8.96041  4.03883 15.22049
Sn  5.97821  5.60489 18.15060
Sn  5.97677  6.42333 21.16212
Sn  8.96297  4.86553 24.10796
Sn  8.96177  4.03517 21.16211
Sn  5.97798  5.59298 24.10796
Sn  5.97485  6.42314 27.07440
Sn  8.95816  4.86021 30.03398
Sn  8.95985  4.03537 27.07439
Sn  5.97316  5.59829 30.03397
Sn  5.97338  6.42365 33.02281
Sn  8.95997  4.87009 35.98646
Sn  8.95838  4.03485 33.02281
Sn  5.97497  5.58841 35.98646
Sn  5.97483  6.42372 38.94426
Sn  8.95804  4.86312 41.90823
Sn  8.95983  4.03484 38.94429
Sn  5.97304  5.59538 41.90822
Sn  5.97506  6.42145 44.88779
Sn  8.96002  4.86984 47.84840
Sn  8.96006  4.03705 44.88779
Sn  5.97502  5.58866 47.84840
Sn  5.97487  6.42629 50.80431
Sn  8.95985  4.86036 53.76865
Sn  8.95987  4.03221 50.80431
Sn  5.97485  5.59814 53.76865
Sn  5.97501  6.42150 56.74978
Sn  8.96001  4.86750 59.71173
Sn  8.96001  4.03700 56.74978
Sn  5.97501  5.59100 59.71173
Sn  5.97501  6.42648 62.66716
Sn  8.96344  4.86379 65.63559
Sn  8.96001  4.03202 62.66716
Sn  5.97844  5.59471 65.63559
Sn  5.97547  6.42447 68.62073
Sn  8.96043  4.86044 71.57745
Sn  8.96047  4.03403 68.62073
Sn  5.97544  5.59807 71.57746
Sn  5.97514  6.42440 74.54588
Sn  8.95845  4.86797 77.49415
Sn  8.96014  4.03410 74.54588
Sn  5.97345  5.59052 77.49414
Sn  5.97512  6.41753 80.49934
Sn  8.95982  4.76650 83.44307
Sn  8.96012  4.04096 80.49933
Sn  5.97482  5.69200 83.44308
Sn 11.94541  6.41967 113.87549
Sn  8.96321  4.85361 116.80560
Sn  8.96041  4.03883 113.87549
Sn  5.97821  5.60489 116.80560
Sn  5.97677  6.42333 119.81712
Sn  8.96297  4.86553 122.76296
Sn  8.96177  4.03517 119.81711
Sn  5.97798  5.59298 122.76296
Sn  5.97485  6.42314 125.72940
Sn  8.95816  4.86021 128.68898
Sn  8.95985  4.03537 125.72939
Sn  5.97316  5.59829 128.68897
Sn  5.97338  6.42365 131.67781
Sn  8.95997  4.87009 134.64146
Sn  8.95838  4.03485 131.67781
Sn  5.97497  5.58841 134.64146
Sn  5.97483  6.42372 137.59926
Sn  8.95804  4.86312 140.56323
Sn  8.95983  4.03484 137.59929
Sn  5.97304  5.59538 140.56322
Sn  5.97506  6.42145 143.54279
Sn  8.96002  4.86984 146.50340
Sn  8.96006  4.03705 143.54279
Sn  5.97502  5.58866 146.50340
Sn  5.97487  6.42629 149.45931
Sn  8.95985  4.86036 152.42365
Sn  8.95987  4.03221 149.45931
Sn  5.97485  5.59814 152.42365
Sn  5.97501  6.42150 155.40478
Sn  8.96001  4.86750 158.36673
Sn  8.96001  4.03700 155.40478
Sn  5.97501  5.59100 158.36673
Sn  5.97501  6.42648 161.32216
Sn  8.96344  4.86379 164.29059
Sn  8.96001  4.03202 161.32216
Sn  5.97844  5.59471 164.29059
Sn  5.97547  6.42447 167.27573
Sn  8.96043  4.86044 170.23245
Sn  8.96047  4.03403 167.27573
Sn  5.97544  5.59807 170.23246
Sn  5.97514  6.42440 173.20088
Sn  8.95845  4.86797 176.14915
Sn  8.96014  4.03410 173.20088
Sn  5.97345  5.59052 176.14914
Sn  5.97512  6.41753 179.15434
Sn  8.95982  4.76650 182.09807
Sn  8.96012  4.04096 179.15433
Sn  5.97482  5.69200 182.09808
