48 

Sn    5.97541   3.20167  15.22049   0.000055371554360  -0.000142169429411   0.000018513087296
Sn    2.99321   1.63561  18.15060   0.000034355665535  -0.000038650819461  -0.000146187816353
Sn    2.99041   0.82083  15.22049   0.000056756835363   0.000142156842702   0.000019442792349
Sn    0.00821   2.38689  18.15060   0.000034350000233   0.000038481810270  -0.000145726057031
Sn    0.00677   3.20533  21.16212   0.000020331746508  -0.000045066453415   0.000045874329294
Sn    2.99297   1.64753  24.10796   0.000166413966624  -0.000102960437723  -0.000070225060560
Sn    2.99177   0.81717  21.16211   0.000020379778297   0.000045064498320   0.000045889485746
Sn    0.00798   2.37498  24.10796   0.000167062774230   0.000103547965349  -0.000069956074108
Sn    0.00485   3.20514  27.07440  -0.000010234147561  -0.000010997860671   0.000030604351891
Sn    2.98816   1.64221  30.03398  -0.000015206092460  -0.000012226252390  -0.000067617194543
Sn    2.98985   0.81737  27.07439  -0.000009969170129   0.000009155876476   0.000032077757957
Sn    0.00316   2.38029  30.03397  -0.000014992601357   0.000011780498136  -0.000067573985390
Sn    0.00338   3.20565  33.02281  -0.000001973220641  -0.000023224922744   0.000092865977273
Sn    2.98997   1.65209  35.98646   0.000004985153071   0.000018376554721   0.000131948589673
Sn    2.98838   0.81685  33.02281  -0.000001990499159   0.000023556320581   0.000092983282345
Sn    0.00497   2.37041  35.98646   0.000004679990069  -0.000019289170958   0.000131311674728
Sn    0.00483   3.20572  38.94426  -0.000016088854659  -0.000024905397438  -0.000037738825107
Sn    2.98804   1.64512  41.90823  -0.000019400605671   0.000025146648707   0.000015937214831
Sn    2.98983   0.81684  38.94429  -0.000016124278693   0.000017986228217  -0.000034969317624
Sn    0.00304   2.37738  41.90822  -0.000019395958015  -0.000025656389097   0.000016433492178
Sn    0.00506   3.20345  44.88779   0.000032189100566  -0.000024128624470   0.000017344201302
Sn    2.99002   1.65184  47.84840   0.000005141220360  -0.000056995648965  -0.000063962358947
Sn    2.99006   0.81905  44.88779   0.000032246278775   0.000024807459757   0.000017334396936
Sn    0.00502   2.37066  47.84840   0.000004994773252   0.000057067190659  -0.000064018878151
Sn    0.00487   3.20829  50.80431  -0.000024749250666  -0.000016867469963  -0.000027364185541
Sn    2.98985   1.64236  53.76865  -0.000034288318444  -0.000016620035493  -0.000039539300115
Sn    2.98987   0.81421  50.80431  -0.000024783695310   0.000016968060803  -0.000027346032727
Sn    0.00485   2.38014  53.76865  -0.000034032588263   0.000016734671941  -0.000039684115959
Sn    0.00501   3.20350  56.74978   0.000014441887763  -0.000041609286802   0.000005266271307
Sn    2.99001   1.64950  59.71173  -0.000005633127484   0.000120151349041  -0.000100767936677
Sn    2.99001   0.81900  56.74978   0.000014469772643   0.000041505102313   0.000005260590542
Sn    0.00501   2.37300  59.71173  -0.000005675658444  -0.000120068911225  -0.000100704488409
Sn    0.00501   3.20848  62.66716   0.000000961070981   0.000026692452240  -0.000064433077447
Sn    2.99344   1.64579  65.63559  -0.000054801873979  -0.000124663516009   0.000037305640629
Sn    2.99001   0.81402  62.66716   0.000000978209773  -0.000026820983120  -0.000064265657399
Sn    0.00844   2.37671  65.63559  -0.000054655981808   0.000124702455761   0.000037106990146
Sn    0.00547   3.20647  68.62073   0.000012693348090   0.000045180495821  -0.000054756143873
Sn    2.99043   1.64244  71.57745   0.000016941050777  -0.000022513733366  -0.000028909833312
Sn    2.99047   0.81603  68.62073   0.000012645764845  -0.000045148555910  -0.000054693415887
Sn    0.00544   2.38007  71.57746   0.000016391912365   0.000022658934797  -0.000028788404417
Sn    0.00514   3.20640  74.54588  -0.000002357998991   0.000027580060140   0.000135491756608
Sn    2.98845   1.64997  77.49415   0.000021902647869  -0.000074986846005  -0.000012967939836
Sn    2.99014   0.81610  74.54588  -0.000002389286831  -0.000027688345094   0.000135474919316
Sn    0.00345   2.37252  77.49414   0.000021765100642   0.000074496702354  -0.000014994143597
Sn    0.00512   3.19953  80.49934   0.000019419837230  -0.000115104206504   0.000114682137304
Sn    2.98982   1.54850  83.44307  -0.000057836813579   0.000045697813371  -0.000037299017517
Sn    2.99012   0.82296  80.49933   0.000019622522125   0.000117195803834   0.000114597918824
Sn    0.00482   2.47400  83.44308  -0.000057792557691  -0.000045533419465  -0.000037462643573
